
2
Na  0.992  1.008  0.306
Cl -1.617  0.144 -0.066

2
Na -0.328 -0.396  0.860
Cl -0.568  0.374  0.058

2
Na  0.985  0.203  1.495
Cl -1.380  1.070 -0.909

2
Na  1.563  0.127 -1.695
Cl -1.392  1.807 -1.326

2
Na  1.217  1.050 -2.713
Cl -2.890  1.838 -1.994

2
Na  0.093  0.136 -2.322
Cl -3.035  1.861 -3.055

2
Na -0.007  0.859 -1.711
Cl -2.061  1.610 -1.930

2
Na  0.095  0.084 -1.048
Cl -2.943  1.898 -2.830

2
Na  0.393 -0.871 -0.969
Cl -1.821  1.779 -1.543

2
Na -0.511 -0.146 -0.747
Cl -1.438  2.175 -3.799

2
Na -0.827  0.578 -1.526
Cl -1.799  2.733 -4.191

2
Na -0.458  1.595 -1.861
Cl -2.726  3.262 -3.570

2
Na -1.280  2.238 -1.622
Cl -3.819  3.815 -1.777

2
Na -2.014  1.657 -2.368
Cl -4.167  2.972 -1.756

2
Na -2.845  0.083 -1.610
Cl -2.409  1.558 -2.296

2
Na -3.162 -0.566 -2.125
Cl -1.043  1.098 -0.538

2
Na -3.845 -0.785 -2.510
Cl -2.033  1.669 -1.778

2
Na -4.650  0.461 -3.587
Cl -1.601  2.550 -1.847

2
Na -3.904 -0.075 -3.860
Cl -2.064  1.311 -3.464

2
Na -4.944 -0.724 -1.950
Cl -2.717  1.417 -1.562

2
Na -5.554  1.407 -0.868
Cl -3.075  1.379 -1.715

2
Na -5.448 -0.265  0.335
Cl -3.207  1.329 -2.558

2
Na -6.086 -0.449 -0.167
Cl -4.279  0.894 -4.122

2
Na -6.540 -1.445 -0.640
Cl -4.351  1.400 -3.290

2
Na -7.216 -1.002 -1.408
Cl -5.354  0.157 -3.309

2
Na -5.447  0.008 -1.898
Cl -4.816 -0.747 -3.137

2
Na -4.594 -0.833 -0.550
Cl -5.130 -1.076 -2.002

2
Na -5.635  0.137 -0.902
Cl -6.812 -0.235 -1.876

2
Na -6.468  0.563 -1.168
Cl -7.642 -1.188 -1.680

2
Na -7.511  1.903 -0.155
Cl -7.767  0.619  0.176

2
Na -7.367  2.919  0.209
Cl -7.977 -0.130  1.069

2
Na -7.682  1.729  1.114
Cl -7.930 -0.662  2.447

2
Na -6.733  1.462  0.385
Cl -7.809 -0.544  2.565

2
Na -5.470  2.054  0.614
Cl -8.254 -2.657  1.464

2
Na -5.032  0.342 -0.038
Cl -7.719 -2.150  1.840

2
Na -4.529 -1.276  0.106
Cl -6.825 -2.197  1.560

2
Na -5.745 -0.986  0.011
Cl -5.129 -1.959  0.669

2
Na -5.812 -1.603 -0.604
Cl -5.287 -2.220  2.391

2
Na -6.037 -0.590 -1.299
Cl -4.774 -1.139  2.176

2
Na -6.247  1.066 -0.739
Cl -5.827 -0.042  1.826

2
Na -6.509  1.196  0.054
Cl -5.273  0.564  2.138

2
Na -7.282  1.559  1.287
Cl -4.929  1.480  1.727

2
Na -6.577  2.316  0.424
Cl -7.030  1.927  1.829

2
Na -6.076  2.581 -0.206
Cl -6.469  1.634  2.419

2
Na -5.281  1.695 -0.085
Cl -5.327  3.479  2.906

2
Na -4.162  1.235 -0.940
Cl -5.841  1.650  2.623

2
Na -5.262  2.706 -1.995
Cl -5.290  1.207  1.679

2
Na -5.431  1.496 -1.148
Cl -4.788  2.261  2.167

2
Na -4.677  1.624 -0.945
Cl -4.566  1.588  1.678

2
Na -3.718  1.894  0.310
Cl -5.289  0.216  0.870

2
Na -4.201  0.598  0.869
Cl -5.804 -0.135 -0.385

2
Na -4.941  0.901  1.869
Cl -6.758 -0.068  0.726

2
Na -5.649  1.101  0.969
Cl -6.064 -0.440  1.646

2
Na -4.965 -0.688  1.770
Cl -7.863 -0.776  3.803

2
Na -5.333 -1.226  2.541
Cl -7.319 -2.608  4.860

2
Na -5.571 -2.451  1.799
Cl -4.693 -2.770  4.391

2
Na -7.086 -2.848  3.707
Cl -4.717 -3.563  4.431

2
Na -6.172 -1.370  3.619
Cl -5.224 -1.603  5.373

2
Na -5.562 -1.055  3.742
Cl -4.643  0.685  5.782

2
Na -5.302 -0.574  5.017
Cl -3.892  0.410  7.504

2
Na -4.338 -0.898  6.014
Cl -4.658 -1.651  7.624

2
Na -4.196 -0.338  5.642
Cl -4.794 -1.046  8.716

2
Na -4.856 -1.007  6.860
Cl -3.962 -0.194  8.036

2
Na -4.448 -2.000  7.245
Cl -3.554 -0.374  7.278

2
Na -4.360 -1.434  5.814
Cl -5.406 -0.981  7.481

2
Na -5.613 -2.215  5.146
Cl -6.318 -1.360  6.812

2
Na -7.241 -3.040  5.761
Cl -6.825 -1.120  7.220

2
Na -8.459 -3.007  5.379
Cl -7.127 -0.356  6.237

2
Na -9.288 -2.636  4.811
Cl -7.288 -1.154  5.459

2
Na -9.998 -3.191  4.859
Cl -8.753 -1.814  4.747

2
Na  8.873 -1.964  5.379
Cl 10.459 -2.009  5.173

2
Na -9.965 -2.490  4.216
Cl -9.573 -3.641  5.220

2
Na -8.814 -2.204  3.196
Cl -10.207 -4.849  5.155

2
Na -9.825 -3.070  2.975
Cl -10.506 -4.748  4.853

2
Na  9.579 -1.371  3.799
Cl  8.418 -4.872  4.319

2
Na  8.009 -2.482  3.722
Cl  6.260 -3.794  3.482

2
Na  6.827 -2.071  3.978
Cl  7.950 -4.234  4.302

2
Na  6.250 -2.023  5.061
Cl  7.507 -4.525  4.560

2
Na  5.558 -3.899  5.560
Cl  6.133 -3.564  5.404

2
Na  5.531 -4.152  5.565
Cl  6.331 -3.781  4.202

2
Na  4.295 -4.741  5.308
Cl  6.459 -3.904  4.213

2
Na  4.020 -5.959  4.780
Cl  6.182 -4.377  4.172

2
Na  3.834 -6.922  4.680
Cl  6.146 -4.442  3.935

2
Na  4.793 -6.104  4.693
Cl  5.829 -4.790  3.136

2
Na  3.402 -6.592  3.795
Cl  5.257 -4.859  2.744

2
Na  3.402 -6.592  3.795
Cl  5.425 -4.700  1.213

2
Na  1.412 -6.907  4.385
Cl  6.024 -5.967  1.522

2
Na  1.298 -7.204  4.635
Cl  4.768 -7.246  1.529

2
Na  0.996 -6.513  3.416
Cl  4.315 -6.005  1.645

2
Na  2.122 -6.682  3.081
Cl  4.981 -5.039  3.192

2
Na  2.829 -6.143  2.059
Cl  4.934 -3.809  1.454

2
Na  2.738 -6.263  2.041
Cl  5.241 -4.883  1.237

2
Na  3.159 -6.487  2.213
Cl  5.245 -5.756  1.493

2
Na  4.612 -7.587  2.474
Cl  4.035 -4.695  1.196

2
Na  4.468 -6.786  2.499
Cl  4.828 -4.887  0.941

2
Na  3.780 -5.388  2.838
Cl  3.742 -3.723  1.802

2
Na  3.906 -4.940  2.706
Cl  3.347 -4.553  1.237

2
Na  3.403 -4.992  3.080
Cl  2.388 -5.548  0.738

2
Na  2.875 -4.495  2.263
Cl  2.232 -5.580  0.540

2
Na  0.364 -3.037  1.454
Cl  1.450 -6.690  1.311

2
Na  0.181 -3.591  2.625
Cl -0.091 -5.808  1.349

2
Na  0.222 -2.955  3.643
Cl -0.559 -5.804  1.757

2
Na  1.210 -2.323  3.585
Cl -0.039 -6.112  2.558

2
Na  1.159 -2.535  3.628
Cl  0.341 -5.465  1.978

2
Na  0.925 -3.812  4.909
Cl  3.169 -4.608  2.129

2
Na  2.068 -2.377  3.914
Cl  1.948 -3.334  2.740

2
Na  1.771 -2.576  3.928
Cl  2.451 -3.494  1.720

2
Na  1.713 -3.531  4.307
Cl  2.596 -4.138  1.434

2
Na -0.035 -2.811  4.398
Cl  1.635 -3.999  2.233

2
Na  0.892 -2.060  3.872
Cl  0.707 -4.289  1.564

2
Na  1.291 -2.585  3.723
Cl  0.629 -4.858  2.937

2
Na -0.298 -3.097  2.115
Cl -0.024 -5.139  4.880

2
Na -0.665 -2.415  2.923
Cl  0.554 -4.749  3.189

2
Na -1.760 -3.661  3.722
Cl  1.666 -4.331  3.256

2
Na -2.113 -4.000  2.828
Cl -0.165 -5.138  3.567

2
Na -2.219 -4.516  3.127
Cl -0.871 -4.932  4.413

2
Na -3.606 -3.691  3.178
Cl -2.267 -4.317  2.005

2
Na -3.079 -2.781  3.803
Cl -2.085 -3.352  2.618

2
Na -3.256 -2.821  3.657
Cl -2.888 -4.157  2.306

2
Na -3.076 -1.331  1.570
Cl -2.635 -3.277  2.591

2
Na -3.099  0.615  1.964
Cl -1.745 -2.590  2.258

2
Na -4.644 -0.577  1.621
Cl -1.551 -1.521  2.427

2
Na -3.722 -0.575  2.808
Cl -1.636 -1.182  2.977

2
Na -2.488  0.135  1.636
Cl -1.713 -1.905  4.684

2
Na -2.080 -0.499  1.149
Cl -1.412 -2.010  4.575

2
Na -1.730 -0.377  3.670
Cl -1.289 -2.470  4.601

2
Na -0.776 -0.297  4.175
Cl -1.868 -3.264  6.267

2
Na -1.627 -2.290  5.221
Cl -1.590 -1.240  7.815

2
Na -0.179 -2.052  6.685
Cl -2.378 -1.461  7.244

2
Na -1.407 -1.833  5.773
Cl -2.978 -2.146  7.070

2
Na -2.199 -0.057  6.118
Cl -3.295 -2.567  7.076

2
Na -1.819 -0.925  6.376
Cl -2.354 -2.955  7.731

2
Na -1.604 -0.114  6.498
Cl -2.025 -3.760  6.954

2
Na -1.417 -0.776  6.424
Cl -2.295 -3.995  6.784

2
Na -1.067 -1.898  6.200
Cl -1.860 -4.474  6.974

2
Na -1.428 -2.054  6.061
Cl -1.712 -4.616  5.512

2
Na -1.503 -3.134  5.049
Cl -2.072 -5.096  6.206

2
Na -0.828 -3.678  4.598
Cl -1.259 -5.105  7.170

2
Na -1.059 -2.572  5.732
Cl -2.804 -4.205  5.389

2
Na -0.184 -2.524  5.718
Cl -3.954 -5.195  4.979

2
Na -1.514 -4.307  6.814
Cl -3.942 -4.676  4.446

2
Na -3.221 -3.275  5.827
Cl -4.201 -5.143  5.282

2
Na -3.941 -1.231  5.065
Cl -4.516 -2.714  5.408

2
Na -4.468 -0.939  4.944
Cl -3.414 -2.664  3.603

2
Na -4.388  0.317  5.683
Cl -3.926 -3.001  3.570

2
Na -6.748 -1.035  5.978
Cl -4.998 -3.019  4.642

2
Na -7.271 -1.303  6.274
Cl -4.055 -3.078  6.719

2
Na -6.797 -1.841  7.319
Cl -5.325 -2.952  7.284

2
Na -4.256 -1.722  8.725
Cl -5.678 -3.519  8.642

2
Na -2.974 -2.437  9.050
Cl -3.335 -4.755  8.993

2
Na -2.147 -3.585  7.408
Cl -2.339 -3.645  9.471

2
Na -3.462 -2.068  6.969
Cl -2.996 -2.274  9.097

2
Na -3.680 -1.678  5.447
Cl -2.881 -2.818  8.795

2
Na -2.524 -0.131  5.622
Cl -3.093 -1.613  9.100

2
Na -2.288 -0.912  6.124
Cl -4.798 -1.652  8.260

2
Na -4.045 -0.185  6.401
Cl -3.384 -2.319  8.248

2
Na -3.537 -0.436  6.935
Cl -3.217 -3.438  7.422

2
Na -3.406 -1.321  6.796
Cl -2.873 -2.975  6.132

2
Na -4.031 -1.713  5.747
Cl -3.645 -3.348  6.912

2
Na -3.628 -1.329  5.867
Cl -2.523 -4.275  6.775

2
Na -2.506 -1.420  5.212
Cl -2.444 -3.964  7.169

2
Na -2.017 -2.399  5.456
Cl -2.145 -2.143  7.562

2
Na -2.403 -4.329  6.916
Cl -2.740 -3.043  7.915

2
Na -1.288 -5.293  6.882
Cl -2.106 -3.400  9.017

2
Na -1.826 -5.848  7.970
Cl -3.100 -4.285  9.815

2
Na -2.801 -7.925  7.068
Cl -2.899 -4.641  9.053

2
Na -2.111 -7.118  7.402
Cl -2.262 -4.959  8.398

2
Na -0.494 -7.440  8.016
Cl -2.633 -5.799  6.896

2
Na -1.332 -6.729  7.744
Cl -1.141 -6.520  7.977

2
Na -0.729 -7.062  8.460
Cl  1.215 -5.215  7.033

2
Na -0.814 -7.298  8.600
Cl  0.487 -6.336  6.846

2
Na  0.450 -5.571 -9.058
Cl  0.001 -5.981 -11.538

2
Na -0.229 -6.311 -9.147
Cl -0.675 -6.701 -12.156

2
Na -1.649 -5.485 -9.355
Cl -0.957 -6.386 -10.934

2
Na -3.132 -4.729 -9.876
Cl -0.302 -6.109 -10.972

2
Na -2.052 -4.818  9.809
Cl  0.794 -4.694  8.566

2
Na -1.737 -4.759 -9.919
Cl  0.002 -3.138 -11.286

2
Na -1.216 -5.052 -9.492
Cl -0.825 -3.414 -12.290

2
Na -1.173 -4.831 -9.294
Cl -0.611 -4.573 -12.754

2
Na -0.662 -3.893 -9.267
Cl -0.359 -4.978 -10.874

2
Na -1.209 -4.431 -8.227
Cl -1.499 -4.997 -11.604

2
Na -1.761 -6.279 -9.921
Cl -1.469 -5.772 -10.011

2
Na -0.937 -6.594 -8.876
Cl -2.934 -5.993 -10.408

2
Na -2.466 -7.324 -9.737
Cl -3.781 -5.180 -9.901

2
Na -2.885 -6.937 -9.792
Cl -5.049 -6.769 -8.988

2
Na -4.219 -6.087 -8.192
Cl -6.053 -7.381 -7.644

2
Na -3.505 -5.678 -7.454
Cl -5.839 -7.492 -6.281

2
Na -3.639 -6.405 -7.193
Cl -4.901 -7.312 -6.694

2
Na -3.077 -5.726 -5.626
Cl -6.183 -6.442 -6.838

2
Na -3.437 -6.091 -5.598
Cl -4.422 -6.826 -6.519

2
Na -3.545 -5.413 -5.369
Cl -4.890 -7.305 -7.170

2
Na -2.460 -5.593 -6.971
Cl -4.685 -6.208 -7.300

2
Na -3.419 -6.736 -8.530
Cl -5.155 -7.825 -8.219

2
Na -4.502 -6.158 -8.441
Cl -5.017 -7.994 -7.873

2
Na -4.137 -5.051 -7.779
Cl -4.968 -7.564 -7.513

2
Na -4.649 -5.937 -7.265
Cl -6.063 -8.144 -8.025

2
Na -6.032 -6.018 -7.063
Cl -6.415 -7.617 -9.131

2
Na -5.540 -7.909 -6.904
Cl -5.768 -7.613 -9.732

2
Na -4.852 -8.242 -7.215
Cl -5.027 -6.281 -9.431

2
Na -5.828 -6.236 -5.610
Cl -5.794 -6.741 -9.206

2
Na -5.003 -5.730 -6.176
Cl -4.950 -7.113 -10.370

2
Na -4.942 -7.539 -6.812
Cl -5.031 -7.612 -9.907

2
Na -5.650 -7.041 -6.921
Cl -6.540 -7.113 -9.808

2
Na -5.416 -7.731 -6.836
Cl -6.735 -7.064 -10.017

2
Na -6.374 -7.359 -7.151
Cl -5.675 -6.929 -10.456

2
Na -7.902 -8.106 -7.583
Cl -7.172 -6.544 -10.694

2
Na -7.546 -8.756 -8.353
Cl -7.756 -5.627 -8.862

2
Na -7.625 -8.955 -8.990
Cl -7.082 -8.510 -6.966

2
Na -7.710 -9.982 -9.775
Cl -6.898 -9.551 -6.861

2
Na -6.357  9.905  9.279
Cl -6.094 12.593 11.837

2
Na -6.586  9.796 -9.154
Cl -6.367 12.632 -7.897

2
Na -7.414 -9.933 -7.337
Cl -7.158 -7.645 -8.762

2
Na -6.647 -9.845 -7.289
Cl -6.314 -10.540 -8.628

2
Na -8.147 -8.717 -5.917
Cl -6.241 -11.303 -7.382

2
Na -8.397  9.399 -5.543
Cl -5.948  8.928 -5.402

2
Na -8.670 -9.760 -5.407
Cl -6.125 -10.156 -6.524

2
Na -7.907 -8.851 -5.847
Cl -6.343 -9.832 -7.125

2
Na -6.472  9.943 -7.060
Cl -6.363  9.211 -5.565

2
Na -6.702 -9.918 -7.844
Cl -5.484 -11.320 -6.682

2
Na -6.119  9.114 -8.345
Cl -5.640  8.381 -7.941

2
Na -5.739  8.922  9.583
Cl -6.205  9.032 12.791

2
Na -5.964  8.766  9.954
Cl -6.490  8.575 11.571

2
Na -4.732  9.337 -8.665
Cl -7.065  8.977 -10.223

2
Na -6.353  9.087 -8.580
Cl -7.161  8.979 -10.411

2
Na -7.200  9.931 -7.669
Cl -6.607  9.308 -10.984

2
Na -5.946  9.043 -9.129
Cl -6.246  9.536 -12.012

2
Na -5.537  7.904 -8.500
Cl -6.229  9.610 -12.518

2
Na -3.096  7.540  9.998
Cl -4.809  9.179  7.937

2
Na -1.951  8.781 -9.316
Cl -5.473  9.458 -12.316

2
Na -2.208  9.147 -9.903
Cl -5.325 10.249 -12.014

2
Na -1.899  8.641  9.794
Cl -4.758  8.628  7.395

2
Na -3.832  9.339 -9.930
Cl -6.527 10.305 -12.381

2
Na -3.810  8.663  9.950
Cl -6.626 10.965  6.886

2
Na -3.745  8.606  9.770
Cl -5.851 10.244  6.926

2
Na -2.479  7.891  9.491
Cl -5.428 10.570  6.226

2
Na -2.036  8.746  8.498
Cl -5.760 10.357  8.444

2
Na -2.958  8.685  7.427
Cl -5.218  9.848  7.115

2
Na -2.479 -9.639  8.467
Cl -4.130 -11.843  6.198

2
Na -2.628  9.417  8.780
Cl -4.507  7.152  6.089

2
Na -1.740  8.488  8.567
Cl -4.015  9.006  6.913

2
Na -0.451  8.399  8.687
Cl -4.196  7.728  8.134

2
Na -1.478  8.266  9.328
Cl -4.495  8.328  8.614

2
Na -0.928  9.618  9.929
Cl -4.169  9.770  8.706

2
Na -1.418  8.815 -9.604
Cl -4.654  9.988 -10.599

2
Na -1.565  9.666 -8.524
Cl -4.136  9.344 -8.730

2
Na -2.880  9.576 -9.055
Cl -3.716 11.066 -7.797

2
Na -2.539 -9.594 -8.376
Cl -3.988 -9.360 -8.626

2
Na -2.066 -9.727 -6.803
Cl -3.454 -8.711 -7.391

2
Na -2.402  9.348 -6.320
Cl -3.673 11.127 -7.636

2
Na -2.297  8.226 -6.754
Cl -3.791 10.311 -7.455

2
Na -1.999  8.487 -6.880
Cl -3.229 11.033 -7.136

2
Na -2.177  8.053 -6.732
Cl -3.318 11.607 -7.904

2
Na -2.778  9.753 -7.719
Cl -3.653 12.071 -7.780

2
Na -1.762 -9.535 -7.098
Cl -2.884 -6.435 -7.709

2
Na -1.497  9.663 -8.410
Cl -2.744 13.400 -7.669

2
Na -0.937 -9.375 -9.019
Cl -4.030 -6.487 -7.080

2
Na -1.424 -8.539  9.948
Cl -3.363 -6.621 11.393

2
Na -1.036 -8.948  9.844
Cl -3.163 -7.396 12.205

2
Na -2.540 -9.205 -9.583
Cl -4.838 -8.014 -8.027

2
Na -2.076 -9.842 -9.733
Cl -5.594 -8.126 -7.991

2
Na -2.646  9.414 -8.669
Cl -5.380 12.682 -7.458

2
Na -2.031  9.389 -7.756
Cl -5.761 11.712 -8.651

2
Na -1.476  9.348 -7.051
Cl -5.573 11.401 -8.928

2
Na -1.932  9.872 -7.029
Cl -5.066 10.679 -8.291

2
Na -3.178 -9.512 -6.366
Cl -4.638 -9.844 -8.594

2
Na -2.629 -9.426 -7.025
Cl -3.842 -8.567 -8.077

2
Na -3.236 -9.280 -6.316
Cl -3.172 -8.441 -9.295

2
Na -2.829 -9.076 -5.907
Cl -3.135 -8.335 -8.995

2
Na -2.370 -8.376 -4.742
Cl -2.745 -8.826 -8.285

2
Na -1.905 -8.326 -4.719
Cl -2.722 -8.598 -7.517

2
Na -1.647 -8.188 -5.070
Cl -2.900 -8.824 -5.835

2
Na -2.223 -7.047 -3.817
Cl -3.751 -9.228 -5.268

2
Na -1.406 -6.936 -4.954
Cl -2.808 -9.394 -5.458

2
Na -2.074 -8.805 -4.626
Cl -3.620 -8.901 -4.940

2
Na -0.540 -8.690 -2.893
Cl -3.030 -8.223 -5.465

2
Na  0.072 -9.412 -2.919
Cl -1.839 -7.467 -5.287

2
Na -0.247 -8.486 -3.167
Cl -3.027 -8.147 -4.836

2
Na -0.821 -7.583 -3.919
Cl -3.810 -8.697 -5.552

2
Na -1.212 -6.958 -4.404
Cl -3.601 -8.978 -4.597

2
Na -1.402 -6.319 -4.774
Cl -2.717 -9.312 -3.619

2
Na -2.658 -7.125 -4.243
Cl -3.128 -8.664 -3.072

2
Na -3.440 -7.117 -4.565
Cl -2.735 -8.582 -2.788

2
Na -3.067 -6.529 -3.242
Cl -1.923 -8.041 -3.758

2
Na -2.959 -7.119 -2.100
Cl -0.486 -7.160 -3.216

2
Na -2.352 -7.902 -1.620
Cl -1.128 -6.671 -4.213

2
Na -1.670 -8.501 -1.652
Cl -1.817 -6.156 -3.456

2
Na -0.731 -9.386 -2.130
Cl -2.700 -7.527 -5.883

2
Na -0.831 -9.793 -2.037
Cl -2.839 -9.925 -6.597

2
Na -2.451  9.524 -2.423
Cl -2.749 10.865 -5.803

2
Na -3.757  9.850 -3.502
Cl -2.562 10.607 -6.079

2
Na -3.133 -9.771 -4.144
Cl -3.257 -8.767 -4.701

2
Na -4.096 -9.606 -4.545
Cl -5.104 -9.374 -5.015

2
Na -4.877 -8.453 -4.284
Cl -4.885 -9.776 -5.020

2
Na -5.453 -8.169 -4.040
Cl -4.087 -9.195 -5.966

2
Na -5.809 -8.802 -4.139
Cl -3.954 -9.196 -5.854

2
Na -6.402 -7.669 -4.780
Cl -5.202 -9.665 -6.082

2
Na -6.366 -6.184 -3.455
Cl -4.674 -8.760 -4.783

2
Na -6.393 -6.453 -2.567
Cl -5.256 -6.685 -3.820

2
Na -5.417 -8.134 -0.332
Cl -5.524 -7.011 -4.355

2
Na -4.439 -8.458  0.293
Cl -6.919 -6.139 -2.444

2
Na -4.795 -7.563  1.092
Cl -5.942 -5.457 -2.146

2
Na -3.699 -7.253  0.841
Cl -5.951 -6.211 -2.138

2
Na -4.215 -7.388  0.865
Cl -4.488 -5.799 -0.624

2
Na -3.560 -7.819  1.522
Cl -4.276 -6.465  0.400

2
Na -3.027 -6.244  0.586
Cl -4.636 -7.430  1.962

2
Na -3.843 -6.945 -0.941
Cl -5.545 -7.000  1.476

2
Na -3.787 -6.233 -1.210
Cl -5.247 -5.921  1.767

2
Na -3.174 -7.169 -0.266
Cl -5.309 -6.788  1.607

2
Na -3.369 -7.304 -0.078
Cl -3.076 -5.680  3.098

2
Na -4.048 -6.392  0.480
Cl -2.363 -7.620  2.112

2
Na -4.184 -7.119  1.932
Cl -2.097 -6.928  2.491

2
Na -3.424 -7.703  1.407
Cl -2.117 -8.086  2.733

2
Na -2.964 -7.918  0.904
Cl -3.240 -7.368  1.628

2
Na -2.863 -8.687  0.745
Cl -2.639 -8.438  3.088

2
Na -4.070 -7.503 -0.192
Cl -2.088 -5.199  1.990

2
Na -4.454 -7.807 -0.728
Cl -2.391 -6.228  1.640

2
Na -3.655 -8.069 -0.275
Cl -2.880 -8.023  1.390

2
Na -4.280 -8.060 -0.131
Cl -2.564 -7.324  1.426

2
Na -4.549 -6.921 -0.286
Cl -4.061 -6.254  2.169

2
Na -4.799 -6.943 -0.668
Cl -3.302 -6.412  2.530

2
Na -3.792 -6.241 -1.131
Cl -2.749 -5.442  2.139

2
Na -2.625 -7.379  0.584
Cl -2.308 -6.608  1.865

2
Na -2.153 -7.153  2.033
Cl -3.908 -6.227  2.205

2
Na -1.286 -7.613  2.164
Cl -3.670 -6.053  2.211

2
Na -0.511 -7.579  2.666
Cl -3.797 -6.647  0.816

2
Na -2.747 -6.004  3.697
Cl -2.824 -7.240  2.738

2
Na -3.407 -5.702  3.597
Cl -1.967 -6.644  3.233

2
Na -2.761 -4.832  2.286
Cl -2.203 -5.709  4.460

2
Na -2.959 -4.383  1.909
Cl -1.725 -6.171  5.556

2
Na -4.543 -4.421  2.589
Cl -2.239 -5.797  5.165

2
Na -3.478 -4.743  2.895
Cl -1.951 -6.963  4.870

2
Na -3.512 -4.325  4.743
Cl -1.316 -6.204  3.054

2
Na -3.540 -5.269  3.484
Cl -0.620 -5.642  2.722

2
Na -2.012 -5.144  3.009
Cl -0.501 -6.253  3.834

2
Na -2.543 -7.109  3.490
Cl  0.005 -6.340  4.356

2
Na -3.145 -7.746  3.471
Cl -0.306 -6.151  4.412

2
Na -2.935 -7.772  3.895
Cl  0.401 -6.413  3.473

2
Na -2.652 -7.554  4.826
Cl -0.195 -5.729  3.611

2
Na -2.622 -6.516  5.215
Cl -0.263 -5.791  4.634

2
Na -1.462 -7.250  3.742
Cl -0.015 -6.036  5.062

2
Na -0.445 -4.633  4.433
Cl  0.242 -3.975  5.050

2
Na  0.187 -2.179  1.999
Cl  0.504 -3.354  3.814

2
Na  0.612 -2.860  1.545
Cl -1.239 -4.321  2.992

2
Na  0.803 -3.166  1.915
Cl -1.433 -4.879  1.725

2
Na -0.680 -4.127  3.072
Cl -2.698 -5.539  2.029

2
Na -1.303 -3.941  2.780
Cl -2.263 -5.666  2.414

2
Na -1.337 -5.430  3.433
Cl -3.469 -5.308  2.654

2
Na -0.329 -4.930  3.808
Cl -3.978 -4.447  2.947

2
Na -2.135 -4.594  2.839
Cl -3.485 -5.406  2.353

2
Na -1.813 -5.885  2.702
Cl -1.948 -6.388  0.818

2
Na -2.003 -5.635  0.972
Cl -2.621 -5.683 -1.024

2
Na -2.323 -5.488  2.256
Cl -2.111 -4.695 -0.226

2
Na -2.461 -5.681  2.531
Cl -3.421 -5.098 -0.578

2
Na -1.355 -7.293  2.410
Cl -1.926 -5.838 -0.627

2
Na -1.359 -7.602  1.395
Cl -1.491 -7.607 -1.089

2
Na -0.769 -8.927  1.823
Cl -1.187 -7.934 -0.852

2
Na -2.160 -7.197  1.529
Cl -0.668 -7.165 -0.002

2
Na -0.265 -8.511  1.495
Cl  0.456 -7.641 -0.262

2
Na -0.232 -8.579 -0.162
Cl  1.411 -8.068 -1.265

2
Na -0.087 -8.464 -0.942
Cl  1.045 -8.421 -1.345

2
Na  0.069 -8.059 -2.849
Cl  1.190 -9.299 -0.108

2
Na  0.567 -8.525 -2.759
Cl  0.026 -8.897 -0.779

2
Na -1.389 -6.760 -2.389
Cl -0.410 -9.584 -1.340

2
Na -2.585 -8.005 -1.806
Cl -1.629 -9.047 -0.445

2
Na -4.791 -8.741 -2.278
Cl -3.126 -9.216  1.153

2
Na -3.068 -8.307 -1.933
Cl -1.760 -8.051  0.857

2
Na -2.837 -7.677 -2.644
Cl -2.073 -9.325  0.532

2
Na -3.594 -7.395 -1.626
Cl -1.719 -7.214 -0.647

2
Na -4.203 -8.112 -1.852
Cl -3.410 -6.567 -1.145

2
Na -3.202 -8.474 -1.386
Cl -2.371 -6.268 -1.409

2
Na -3.056 -5.877 -1.585
Cl -1.509 -6.532 -1.206

2
Na -2.780 -6.127 -1.443
Cl -1.064 -6.881 -0.110

2
Na -4.120 -5.617 -0.081
Cl -2.468 -7.170  0.036

2
Na -3.237 -6.606 -0.315
Cl -1.277 -7.075 -1.889

2
Na -3.444 -6.782 -0.475
Cl -1.422 -7.532 -1.241

2
Na -2.696 -6.548 -0.659
Cl -0.520 -6.876 -2.074

2
Na -2.095 -6.457  0.025
Cl -1.982 -7.663 -2.542

2
Na -4.006 -6.179 -0.398
Cl -1.168 -7.509 -2.805

2
Na -3.842 -5.771 -1.509
Cl -2.362 -8.803 -1.870

2
Na -3.372 -6.886 -0.922
Cl -3.242 -10.198 -0.604

2
Na -4.528 -7.352 -0.204
Cl -4.359 -9.316 -0.024

2
Na -2.523 -7.876 -0.655
Cl -4.282 -9.320  0.095

2
Na -1.897 -7.366  0.848
Cl -4.346 -8.258  0.067

2
Na -2.708 -9.534  1.773
Cl -3.782 -7.936 -0.549

2
Na -1.113  9.865  2.157
Cl -4.298 12.016  1.035

2
Na -1.096 -9.884  1.853
Cl -2.525 -7.431  1.187

2
Na -0.111 -9.075  1.878
Cl -2.482 -6.240  0.666

2
Na -1.053 -8.186  1.193
Cl -2.600 -7.407 -0.095

2
Na  0.178 -7.635  1.628
Cl -1.775 -7.001  0.511

2
Na -0.379 -7.253  3.040
Cl -0.122 -5.291  0.869

2
Na -1.324 -6.968  2.938
Cl -0.752 -5.712  1.317

2
Na -1.714 -6.740  2.593
Cl -1.220 -6.705 -0.348

2
Na -0.593 -4.931  1.117
Cl -0.739 -7.005  0.107

2
Na -1.320 -5.194  2.107
Cl -0.326 -7.196 -0.753

2
Na -0.652 -6.854  2.417
Cl -0.650 -7.089  0.154

2
Na -0.441 -7.258  1.284
Cl -0.555 -6.814  1.179

2
Na -0.721 -6.851  2.989
Cl -0.639 -4.850  0.716

2
Na  0.137 -7.847  2.682
Cl  0.726 -5.694  0.770

2
Na  0.077 -6.782  2.767
Cl  1.697 -6.539  1.230

2
Na  1.082 -8.170  2.710
Cl  2.328 -6.882  1.171

2
Na  2.798  9.786  1.863
Cl  0.879 13.476  3.216

2
Na  1.767 -9.366  1.598
Cl  1.095 -7.853  4.703

2
Na  2.559 -8.972  2.561
Cl  2.226 -6.706  4.241

2
Na  2.915 -8.690  3.037
Cl  1.279 -6.414  3.383

2
Na  3.009 -8.404  4.147
Cl  1.440 -6.727  4.583

2
Na  1.357 -9.509  4.852
Cl  0.819 -6.923  5.559

2
Na  1.327 -9.380  4.251
Cl  1.222 -7.453  5.252

2
Na  0.613 -9.268  4.738
Cl  1.788 -8.212  5.305

2
Na  0.372  9.952  5.247
Cl  2.181  9.811  4.049

2
Na  0.455 -9.771  6.034
Cl  1.717 -8.043  4.590

2
Na  1.428 -9.637  4.776
Cl  3.216 -7.851  3.576

2
Na  0.188 -9.217  4.486
Cl  2.484 -7.759  3.910

2
Na  0.706 -8.225  4.735
Cl  2.511 -7.239  3.385

2
Na  0.232 -7.737  3.596
Cl  1.328 -7.318  3.518

2
Na  0.418 -7.705  3.503
Cl  1.018 -8.390  3.479

2
Na  0.683 -6.566  4.075
Cl  0.788 -8.178  3.576

2
Na  0.861 -6.746  4.074
Cl  0.903 -8.353  4.578

2
Na  0.897 -6.522  3.974
Cl  2.102 -8.817  5.562

2
Na  0.390 -5.712  4.403
Cl  2.417 -7.326  5.596

2
Na  1.326 -5.007  4.622
Cl  2.299 -5.268  5.777

2
Na  1.173 -5.830  4.701
Cl  2.244 -3.771  6.463

2
Na  1.301 -6.247  5.241
Cl  2.568 -4.842  6.966

2
Na  1.514 -5.797  4.957
Cl  3.510 -4.841  6.550

2
Na  1.431 -5.239  6.936
Cl  4.150 -6.377  6.816

2
Na  0.857 -5.077  5.629
Cl  3.400 -6.071  5.907

2
Na  1.332 -4.587  6.805
Cl  4.083 -5.491  5.406

2
Na  3.095 -4.157  7.909
Cl  4.255 -4.184  6.022

2
Na  2.719 -4.936  8.471
Cl  4.129 -4.954  5.957

2
Na  3.318 -5.584  7.854
Cl  4.949 -4.383  6.002

2
Na  2.928 -4.859  7.049
Cl  5.071 -2.904  7.713

2
Na  2.709 -4.840  6.756
Cl  4.725 -3.338  6.952

2
Na  2.791 -5.275  5.716
Cl  3.470 -4.581  8.466

2
Na  3.634 -3.896  5.232
Cl  2.703 -3.680  9.043

2
Na  4.113 -3.351  4.532
Cl  3.746 -4.415  7.899

2
Na  4.182 -4.098  4.259
Cl  4.269 -4.482  6.458

2
Na  3.799 -5.266  5.086
Cl  2.818 -3.672  6.969

2
Na  4.863 -5.193  3.630
Cl  4.408 -3.594  5.956

2
Na  3.442 -5.812  4.923
Cl  3.762 -3.442  5.255

2
Na  3.397 -4.408  5.762
Cl  5.253 -2.587  3.949

2
Na  3.667 -4.729  5.362
Cl  5.602 -2.603  4.596

2
Na  4.537 -3.706  4.888
Cl  6.992 -2.431  4.664

2
Na  4.731 -3.931  3.413
Cl  6.636 -1.540  3.167

2
Na  6.309 -3.305  2.765
Cl  5.232 -1.414  3.900

2
Na  5.345 -3.251  1.620
Cl  5.456 -0.941  3.351

2
Na  5.112 -3.909  1.639
Cl  4.090 -2.452  2.655

2
Na  6.345 -2.893  1.878
Cl  4.824 -2.977  1.970

2
Na  6.728 -2.385  2.108
Cl  3.789 -2.786  1.096

2
Na  6.834 -3.275  1.460
Cl  3.891 -3.269 -0.069

2
Na  5.592 -3.908  0.414
Cl  4.406 -4.743 -0.786

2
Na  6.898 -4.148 -1.442
Cl  4.345 -4.381 -0.143

2
Na  6.474 -4.146 -1.632
Cl  3.481 -6.016 -2.650

2
Na  5.899 -3.299 -1.729
Cl  3.984 -4.564 -3.026

2
Na  6.373 -4.259 -2.178
Cl  3.881 -4.508 -2.174

2
Na  7.029 -4.052 -2.868
Cl  4.455 -3.857 -2.282

2
Na  6.855 -4.088 -2.160
Cl  4.331 -3.245 -4.103

2
Na  6.210 -4.499 -2.915
Cl  5.308 -3.952 -3.645

2
Na  6.162 -6.064 -3.151
Cl  5.491 -5.583 -3.597

2
Na  4.958 -6.162 -2.986
Cl  7.101 -4.186 -3.652

2
Na  5.196 -6.334 -2.366
Cl  7.672 -5.754 -3.995

2
Na  5.052 -6.563 -3.293
Cl  7.517 -5.731 -1.376

2
Na  5.331 -5.247 -3.475
Cl  7.062 -7.107 -1.314

2
Na  5.871 -5.671 -3.434
Cl  6.622 -5.542 -0.401

2
Na  5.672 -5.356 -3.100
Cl  6.692 -5.183 -1.136

2
Na  5.647 -4.963 -3.764
Cl  7.204 -5.536 -0.661

2
Na  5.420 -4.351 -2.921
Cl  4.719 -5.109 -1.444

2
Na  5.647 -4.002 -2.019
Cl  5.134 -6.644  0.025

2
Na  5.085 -3.368 -2.507
Cl  5.579 -6.531  0.951

2
Na  6.616 -3.924 -2.164
Cl  7.113 -5.820  0.397

2
Na  8.011 -4.610 -1.916
Cl  7.203 -6.100  1.615

2
Na  5.980 -3.523 -1.701
Cl  7.189 -3.583  0.822

2
Na  5.170 -3.638 -0.791
Cl  7.663 -4.580 -0.263

2
Na  4.629 -2.770 -0.359
Cl  7.623 -3.734 -0.373

2
Na  5.246 -3.480 -0.500
Cl  7.143 -3.672  1.413

2
Na  5.765 -3.627 -2.324
Cl  6.359 -4.081  0.528

2
Na  6.142 -3.476 -2.450
Cl  7.671 -5.441  1.274

2
Na  6.208 -3.795 -1.484
Cl  7.343 -3.845  0.725

2
Na  5.211 -3.275 -1.123
Cl  7.788 -4.311  0.315

2
Na  4.443 -2.615 -0.124
Cl  7.484 -3.191 -0.169

2
Na  5.850 -2.028  0.337
Cl  7.284 -2.577 -1.852

2
Na  5.904 -2.079 -1.328
Cl  7.998 -4.985 -2.168

2
Na  4.835 -1.248 -2.118
Cl  7.631 -4.902 -3.513

2
Na  4.422 -1.440 -2.682
Cl  6.276 -4.259 -3.099

2
Na  5.466 -1.293 -1.777
Cl  7.863 -3.401 -2.879

2
Na  7.028 -1.364 -1.720
Cl  9.384 -3.821 -3.156

2
Na  8.083 -2.725 -3.384
Cl  9.783 -3.366 -0.421

2
Na  8.035 -2.413 -2.177
Cl  9.869 -4.405 -0.223

2
Na  7.418 -4.267 -2.510
Cl  7.965 -3.951 -0.642

2
Na  8.216 -3.623 -2.154
Cl  8.028 -4.695 -1.841

2
Na  8.113 -2.712 -1.255
Cl  9.230 -4.117 -2.516

2
Na  8.402 -2.729 -2.105
Cl  7.661 -4.061 -1.647

2
Na  8.049 -3.636 -1.321
Cl  7.256 -4.000 -0.792

2
Na  8.306 -4.602 -1.424
Cl  7.852 -4.685  1.182

2
Na  7.781 -2.726 -1.149
Cl  8.115 -4.357  0.317

2
Na  8.276 -3.962 -1.995
Cl  7.256 -3.764 -0.488

2
Na  9.498 -3.958 -0.873
Cl  8.329 -3.578 -0.751

2
Na -8.968 -5.685 -1.400
Cl -11.679 -3.784 -1.710

2
Na  9.650 -5.274 -2.420
Cl  7.797 -3.194 -1.622

2
Na  9.154 -4.413 -1.465
Cl  7.767 -2.756 -3.128

2
Na  7.741 -5.648 -2.133
Cl  8.432 -3.010 -2.068

2
Na  8.410 -5.415 -1.262
Cl  8.288 -2.990 -2.541

2
Na  9.342 -4.530 -1.896
Cl  9.964 -2.971 -1.699

2
Na -9.802 -4.567 -2.165
Cl -10.803 -2.686 -2.677

2
Na -9.024 -4.307 -2.079
Cl -10.098 -2.327 -3.740

2
Na -8.445 -3.743 -2.725
Cl -10.571 -2.301 -2.613

2
Na -8.925 -3.434 -3.051
Cl -11.420 -1.950 -4.154

2
Na -9.757 -4.494 -1.593
Cl -10.365 -3.582 -3.189

2
Na  9.178 -4.044 -1.460
Cl 10.737 -3.371 -2.070

2
Na -9.129 -5.240 -2.537
Cl -11.289 -3.304 -1.005

2
Na  9.520 -5.139 -2.214
Cl 10.310 -3.888 -0.600

2
Na  8.967 -4.771 -2.328
Cl 10.678 -5.058 -0.805

2
Na  8.498 -4.495 -0.962
Cl  9.396 -5.502 -0.726

2
Na  9.791 -5.017 -2.582
Cl  9.420 -5.464  0.779

2
Na -8.829 -4.475 -1.765
Cl -11.534 -6.279 -0.901

2
Na -9.731 -4.671 -1.186
Cl -12.279 -6.307 -1.705

2
Na -9.430 -5.806 -1.991
Cl -12.778 -7.228 -1.593

2
Na -9.142 -6.413 -2.020
Cl -11.252 -7.694 -0.518

2
Na -8.187 -5.714 -1.839
Cl -9.148 -6.641 -1.682

2
Na -8.133 -5.511  0.156
Cl -9.371 -6.681 -0.683

2
Na  9.431 -5.295  0.431
Cl 10.510 -5.448 -2.258

2
Na  9.860 -5.417  0.360
Cl  9.951 -5.239 -2.024

2
Na  8.598 -4.582 -0.112
Cl 10.091 -3.562 -1.821

2
Na  8.418 -4.453 -0.816
Cl  9.769 -3.562 -2.261

2
Na  8.512 -4.758  0.849
Cl  9.951 -3.363 -2.032

2
Na  8.405 -4.461  0.144
Cl 11.145 -3.402 -1.467

2
Na  7.640 -3.371 -0.241
Cl 10.534 -2.833 -1.659

2
Na  7.701 -2.775 -0.195
Cl  8.561 -4.334 -0.485

2
Na  7.893 -2.199 -2.308
Cl  9.156 -3.324 -0.519

2
Na  8.203 -2.580 -2.953
Cl  8.479 -2.865  1.127

2
Na  8.524 -2.573 -2.407
Cl  8.575 -2.547  0.262

2
Na  8.331 -1.254 -1.972
Cl  7.303 -4.312 -1.283

2
Na  7.700 -1.728 -2.086
Cl  7.502 -4.224 -0.928

2
Na  8.381 -0.993 -1.087
Cl  7.644 -4.600 -1.216

2
Na  8.473 -1.044  1.143
Cl  7.994 -3.728  0.129

2
Na  8.823 -0.122  1.172
Cl  9.292 -2.917  0.843

2
Na -9.805  0.120  0.853
Cl -10.249 -1.803  0.303

2
Na -9.407 -0.015  1.158
Cl -10.583 -2.993  0.022

2
Na -9.451  0.806 -0.202
Cl -10.449 -3.181  0.301

2
Na -9.063  1.173  0.463
Cl -9.355 -3.486 -0.261

2
Na -9.113  0.222 -0.373
Cl -9.606 -3.256 -0.557

2
Na -8.578 -0.254  0.407
Cl -9.488 -3.693 -0.298

2
Na -8.072  0.013 -0.104
Cl -7.474 -3.816 -0.204

2
Na -7.570  1.084 -0.918
Cl -8.231 -3.466 -0.103

2
Na -8.069  1.040 -1.343
Cl -7.652 -2.684  0.285

2
Na -8.159  1.090 -0.212
Cl -8.269 -0.850 -0.357

2
Na -5.728  0.886  0.266
Cl -7.754 -1.116  0.185

2
Na -3.848  0.808 -0.090
Cl -7.024 -0.514 -0.930

2
Na -3.538  0.088  0.338
Cl -7.632 -1.333 -0.108

2
Na -4.312 -1.320 -0.626
Cl -7.848 -0.597  0.376

2
Na -3.639 -0.809 -1.321
Cl -7.276 -0.848  0.776

2
Na -3.655 -0.126 -1.443
Cl -6.947  0.287  0.561

2
Na -2.813  0.684 -1.933
Cl -6.551 -0.703 -0.576

2
Na -4.713  1.620 -2.228
Cl -6.356 -0.171 -0.660

2
Na -4.994  0.938 -1.612
Cl -6.676 -0.768 -0.501

2
Na -5.239  0.236 -1.565
Cl -6.130 -0.560 -0.407

2
Na -4.901  0.255 -2.499
Cl -6.601 -0.620 -0.268

2
Na -4.784  0.668 -1.805
Cl -5.971 -0.341 -2.038

2
Na -5.096  0.516 -2.105
Cl -5.242 -1.927 -1.676

2
Na -4.110  0.605 -1.935
Cl -5.468 -3.662 -1.889

2
Na -4.207  0.316 -1.523
Cl -4.444 -3.443 -2.341

2
Na -4.690 -0.981 -1.622
Cl -4.565 -3.369 -2.491

2
Na -4.946 -1.709 -1.178
Cl -5.179 -3.269 -1.792

2
Na -3.923 -2.353 -1.328
Cl -6.807 -3.115 -0.773

2
Na -3.412 -2.862 -2.498
Cl -5.991 -4.289 -0.978

2
Na -1.815 -3.142 -2.343
Cl -4.907 -5.473 -2.371

2
Na -2.042 -2.979 -3.471
Cl -4.316 -5.176 -1.025

2
Na -2.603 -3.179 -3.008
Cl -4.492 -4.789 -1.396

2
Na -4.436 -3.877 -1.960
Cl -3.669 -4.266 -2.533

2
Na -5.055 -4.017 -1.679
Cl -3.402 -3.848 -0.365

2
Na -6.723 -4.443 -1.381
Cl -4.145 -5.501 -0.560

2
Na -6.974 -4.782 -2.067
Cl -3.882 -6.280 -0.825

2
Na -6.868 -5.184 -3.330
Cl -4.378 -7.404 -1.641

2
Na -6.725 -5.524 -4.233
Cl -5.007 -6.817 -1.417

2
Na -6.751 -6.021 -5.440
Cl -4.628 -7.329 -2.109

2
Na -6.689 -5.889 -5.714
Cl -4.312 -7.721 -1.681

2
Na -8.040 -5.443 -5.113
Cl -4.444 -7.257 -2.227

2
Na -6.803 -5.481 -5.901
Cl -5.023 -6.489 -1.223

2
Na -6.922 -6.139 -5.338
Cl -4.386 -6.719 -2.214

2
Na -6.251 -4.341 -4.573
Cl -4.473 -5.902 -2.173

2
Na -5.812 -4.490 -3.577
Cl -5.765 -6.180 -4.069

2
Na -5.860 -3.667 -3.886
Cl -5.158 -6.534 -4.293

2
Na -6.150 -3.822 -3.272
Cl -5.314 -5.154 -4.466

2
Na -3.605 -3.725 -4.160
Cl -5.780 -3.923 -4.378

2
Na -3.229 -3.186 -3.832
Cl -6.329 -3.120 -3.735

2
Na -4.812 -3.093 -5.625
Cl -6.095 -4.051 -5.143

2
Na -3.308 -2.950 -5.075
Cl -6.156 -3.329 -6.180

2
Na -3.245 -3.112 -5.264
Cl -4.115 -3.888 -7.041

2
Na -2.847 -2.993 -5.467
Cl -5.495 -3.344 -8.096

2
Na -3.470 -3.136 -5.641
Cl -4.114 -2.816 -8.130

2
Na -2.606 -2.362 -6.854
Cl -4.606 -1.980 -7.758

2
Na -2.326 -3.757 -6.198
Cl -4.409 -3.701 -8.519

2
Na -2.312 -4.390 -5.970
Cl -4.947 -3.422 -8.478

2
Na -2.202 -2.433 -5.598
Cl -5.214 -3.839 -8.327

2
Na -2.538 -1.820 -5.700
Cl -4.181 -3.914 -8.509

2
Na -1.817 -1.440 -7.229
Cl -3.527 -4.264 -8.576

2
Na -1.458 -3.103 -8.355
Cl -4.028 -3.551 -8.104

2
Na -1.007 -5.590 -9.863
Cl -3.953 -3.020 -9.461

2
Na -1.032 -4.410  9.646
Cl -4.172 -2.529  9.326

2
Na -1.331 -3.476  9.946
Cl -2.840 -1.439  9.955

2
Na -2.087 -3.978  8.697
Cl -1.034 -2.205  9.026

2
Na -1.261 -3.231  6.527
Cl -0.943 -2.190  6.273

2
Na -2.222 -4.537  7.151
Cl -0.720 -4.398  5.320

2
Na -2.115 -4.235  7.216
Cl -0.129 -3.837  5.772

2
Na -2.005 -4.360  6.968
Cl  1.541 -3.376  7.037

2
Na -1.354 -4.361  5.553
Cl  0.301 -2.790  8.333

2
Na -0.206 -4.460  6.085
Cl -0.248 -2.212  7.351

2
Na  1.004 -3.957  5.570
Cl -0.067 -2.591  7.156

2
Na  1.489 -4.540  5.738
Cl -1.004 -3.564  6.482

2
Na  1.625 -3.575  5.260
Cl -1.892 -3.206  4.582

2
Na  0.559 -2.440  5.866
Cl -1.231 -2.623  5.050

2
Na  0.283 -3.072  6.607
Cl -1.596 -2.869  6.289

2
Na -0.091 -4.079  5.773
Cl -1.620 -2.455  6.333

2
Na -1.430 -4.257  6.762
Cl -1.296 -2.298  4.687

2
Na -1.388 -4.023  6.011
Cl -1.283 -1.051  3.393

2
Na -1.420 -3.025  5.902
Cl -0.584 -2.383  2.537

2
Na -0.727 -3.191  5.847
Cl -0.223 -2.020  3.716

2
Na -0.209 -2.692  4.435
Cl  0.860 -3.079  4.150

2
Na  0.233 -2.270  2.631
Cl  1.237 -2.194  4.892

2
Na -0.497 -4.217  2.815
Cl -0.245 -1.350  4.345

2
Na -1.931 -2.963  3.167
Cl -0.114 -2.080  2.448

2
Na -1.333 -2.505  4.043
Cl -2.327 -0.851  1.605

2
Na -3.456 -0.965  3.025
Cl -2.715 -1.153  1.050

2
Na -4.529 -1.463  2.952
Cl -4.408 -0.555  0.329

2
Na -3.835 -0.705  3.515
Cl -5.214  0.103  2.043

2
Na -2.447  0.215  3.885
Cl -2.985  0.237  2.711

2
Na -2.820  0.521  5.408
Cl -3.233 -0.459  2.028

2
Na -3.272  0.840  4.973
Cl -4.288  0.108  3.088

2
Na -2.469  0.190  6.510
Cl -3.279 -0.634  2.548

2
Na -2.723 -0.268  4.668
Cl -4.381 -1.394  1.533

2
Na -3.249 -0.787  2.804
Cl -3.087 -2.174  0.407

2
Na -3.570 -0.201  2.369
Cl -2.305 -0.360  2.472

2
Na -3.408 -0.104  2.715
Cl -2.125 -0.192  2.225

2
Na -2.667  1.067  3.045
Cl -3.156 -1.262  3.658

2
Na -2.820  1.666  4.181
Cl -2.716 -1.209  4.053

2
Na -3.278  2.372  4.347
Cl -1.877 -0.843  4.249

2
Na -3.818  2.070  5.438
Cl -2.178 -0.725  3.104

2
Na -3.485 -0.069  4.629
Cl -2.271 -0.438  3.218

2
Na -2.743  0.714  3.746
Cl -2.526 -1.772  4.669

2
Na -2.964  0.531  4.417
Cl -1.580 -0.968  3.752

2
Na -2.765  2.158  4.424
Cl -2.492  0.312  3.564

2
Na -3.332  3.568  3.011
Cl -3.785  1.027  4.814

2
Na -2.911  3.333  3.226
Cl -2.740  0.462  4.582

2
Na -2.727  2.318  3.552
Cl -2.367 -0.154  4.040

2
Na -2.382  2.153  3.310
Cl -1.333 -0.594  3.273

2
Na -2.018  1.494  4.147
Cl -1.592 -0.838  3.602

2
Na -1.110  2.018  5.030
Cl -2.010 -0.817  2.763

2
Na -0.312  0.343  5.296
Cl -1.874 -1.301  3.189

2
Na -0.461 -0.414  5.258
Cl -1.573 -0.934  3.375

2
Na -0.577  1.586  4.388
Cl -3.140  0.153  4.993

2
Na  0.021  0.452  4.914
Cl -3.062  0.774  5.735

2
Na -3.080 -1.396  3.242
Cl -1.616  1.031  5.057

2
Na -2.220 -1.311  3.204
Cl -1.278  1.397  4.296

2
Na -3.559 -1.084  3.884
Cl -1.864 -0.067  5.855

2
Na -2.484 -1.943  3.844
Cl -0.471 -0.182  6.060

2
Na -0.713 -2.230  4.592
Cl -0.746  2.013  5.390

2
Na -0.717 -0.095  4.709
Cl -0.748  2.329  4.680

2
Na -0.378  0.376  5.327
Cl -1.599  2.465  5.198

2
Na  0.520  2.475  3.498
Cl -1.557  3.702  4.410

2
Na  1.295  3.889  2.673
Cl -0.990  5.923  4.396

2
Na  2.058  4.029  2.731
Cl -0.346  6.036  5.548

2
Na  0.872  3.605  2.273
Cl  0.459  5.081  4.407

2
Na  0.919  6.428  3.755
Cl  0.044  5.415  4.690

2
Na  1.757  6.884  3.909
Cl  1.153  6.210  6.562

2
Na  2.908  5.722  4.394
Cl  2.811  7.196  4.351

2
Na  4.035  6.329  4.128
Cl  2.668  8.804  3.171

2
Na  4.877  7.273  3.750
Cl  3.481  8.369  3.808

2
Na  3.595  7.826  4.748
Cl  3.212  8.178  3.515

2
Na  2.963  8.480  5.740
Cl  4.256  7.506  4.628

2
Na  3.548  8.682  6.385
Cl  5.627  6.779  5.287

2
Na  3.190  8.724  6.080
Cl  5.391  6.313  5.403

2
Na  3.543  8.941  4.931
Cl  5.394  5.998  4.995

2
Na  4.053  8.039  4.584
Cl  6.490  6.061  4.782

2
Na  5.326  7.468  5.362
Cl  6.044  7.794  3.800

2
Na  3.775  8.436  6.632
Cl  4.557  7.822  3.721

2
Na  4.495  7.594  6.849
Cl  5.211  7.956  3.862

2
Na  4.223  7.764  6.033
Cl  5.095  9.120  3.329

2
Na  4.109  6.516  4.077
Cl  7.026  8.124  3.901

2
Na  4.725  6.777  5.688
Cl  5.592  8.526  4.024

2
Na  4.999  7.189  4.573
Cl  5.019  8.966  3.080

2
Na  4.928  6.110  4.929
Cl  4.753  8.801  2.736

2
Na  4.173  7.488  4.288
Cl  5.559  7.805  2.339

2
Na  3.657  7.550  4.576
Cl  3.985  8.433  3.715

2
Na  3.029  6.914  4.170
Cl  2.197  8.056  3.386

2
Na  4.342  9.029  2.497
Cl  2.818  8.016  3.075

2
Na  3.856  9.734  3.042
Cl  3.189  8.274  4.158

2
Na  2.048 -9.867  3.407
Cl  2.699 -10.526  3.206

2
Na  4.270  8.898  3.812
Cl  1.290  9.559  3.631

2
Na  4.793  8.779  3.307
Cl  0.292  9.629  3.920

2
Na  4.232  9.056  2.559
Cl  1.284  8.529  2.470

2
Na  4.379  9.526  2.685
Cl  1.842  9.980  3.229

2
Na  4.556 -9.819  4.395
Cl  1.886 -10.642  4.150

2
Na  4.660  9.193  4.511
Cl  1.745  8.968  4.137

2
Na  4.865  9.176  5.265
Cl  2.315  8.990  5.032

2
Na  5.830  8.183  6.321
Cl  3.560  9.614  3.907

2
Na  6.722  9.512  5.142
Cl  4.296  9.587  3.890

2
Na  6.574  9.697  3.510
Cl  3.676 11.157  2.855

2
Na  6.805 -8.945  2.397
Cl  3.945 -9.431  4.289

2
Na  6.988 -9.458  4.194
Cl  3.249 -9.913  5.342

2
Na  6.561 -9.206  5.003
Cl  2.940 -10.940  5.521

2
Na  5.876 -8.264  4.306
Cl  4.611 -9.053  4.959

2
Na  5.896 -6.775  3.344
Cl  4.489 -8.131  4.769

2
Na  4.407 -6.723  3.581
Cl  4.040 -7.135  4.086

2
Na  4.060 -8.290  2.129
Cl  5.019 -7.939  2.416

2
Na  3.098 -8.593  2.016
Cl  5.938 -9.488  1.618

2
Na  3.097 -8.939  2.004
Cl  5.893 -9.549  1.932

2
Na  4.079 -7.187  1.248
Cl  5.404 -9.578  3.047

2
Na  3.296 -7.803  0.955
Cl  4.532 -9.281  4.451

2
Na  4.899 -7.952  1.468
Cl  4.577 -9.742  3.280

2
Na  5.858 -7.188  1.490
Cl  4.170 -8.158  3.187

2
Na  5.988 -7.050  2.043
Cl  4.712 -7.452  2.992

2
Na  7.622 -6.943  1.851
Cl  5.392 -7.070  2.488

2
Na  8.154 -7.222  2.758
Cl  5.899 -6.865  3.456

2
Na  8.020 -7.751  3.083
Cl  5.686 -7.001  3.356

2
Na  8.457 -7.620  2.840
Cl  4.547 -7.096  3.106

2
Na  7.141 -6.077  2.961
Cl  4.705 -7.804  3.463

2
Na  7.094 -5.625  2.387
Cl  5.962 -7.386  3.169

2
Na  7.320 -6.549  1.581
Cl  5.553 -7.611  2.642

2
Na  5.741 -7.539  0.726
Cl  5.178 -6.576  3.312

2
Na  5.812 -7.878 -0.069
Cl  4.759 -6.462  3.341

2
Na  5.735 -6.361  0.125
Cl  4.663 -7.809  2.263

2
Na  6.405 -7.561 -1.471
Cl  5.649 -7.776  1.819

2
Na  6.702 -7.647 -0.263
Cl  5.686 -8.658  1.395

2
Na  6.991 -7.887  0.020
Cl  6.736 -7.782  1.217

2
Na  8.214 -7.010  0.122
Cl  7.746 -7.100  0.387

2
Na  5.754 -8.388  0.858
Cl  7.258 -7.561 -0.381

2
Na  5.308 -8.412  0.202
Cl  6.060 -7.705 -0.184

2
Na  4.290 -9.184 -1.615
Cl  5.437 -8.286 -0.148

2
Na  3.884 -7.774 -1.945
Cl  4.782 -9.437 -0.323

2
Na  3.165 -7.688 -0.755
Cl  5.610 -10.882  0.876

2
Na  4.336 -6.995 -1.289
Cl  5.967 -11.962 -1.438

2
Na  3.950 -7.667 -1.359
Cl  5.620 -10.965 -1.218

2
Na  5.436 -7.467 -1.768
Cl  6.285 -10.234 -0.199

2
Na  6.339 -7.698 -0.928
Cl  5.733 -10.336  0.097

2
Na  6.323 -7.607  0.241
Cl  4.816 -9.032 -0.580

2
Na  5.493 -8.601  1.843
Cl  5.384 -10.707 -0.133

2
Na  6.202 -7.674  1.480
Cl  5.680 -10.581  1.126

2
Na  5.545 -8.062 -0.203
Cl  6.313 -10.395  0.811

2
Na  6.055 -8.764  0.218
Cl  5.593 -9.270 -0.339

2
Na  6.150 -8.220 -1.209
Cl  6.069 -10.427 -0.575

2
Na  4.880 -8.616 -0.077
Cl  7.384 -10.102 -0.499

2
Na  5.924 -8.012  0.728
Cl  6.455 -10.180  0.023

2
Na  5.615 -7.369 -0.509
Cl  5.787 -8.784 -0.394

2
Na  5.237 -8.844 -0.224
Cl  5.529 -7.504  0.360

2
Na  6.114 -7.868  0.295
Cl  6.243 -6.594  1.000

2
Na  5.529 -7.979  1.242
Cl  7.087 -6.976  3.057

2
Na  5.389 -8.059  1.636
Cl  8.268 -7.960  2.847

2
Na  6.146 -7.561  1.322
Cl  8.161 -8.521  2.823

2
Na  5.828 -7.276  2.202
Cl  7.475 -8.805  2.114

2
Na  5.771 -5.961  1.559
Cl  7.649 -7.624  3.077

2
Na  6.040 -6.140  2.046
Cl  6.952 -8.210  2.827

2
Na  7.005 -5.986  3.800
Cl  8.360 -8.389  2.798

2
Na  5.648 -6.456  2.989
Cl  6.788 -8.974  2.286

2
Na  5.080 -7.162  3.895
Cl  7.614 -7.681  1.478

2
Na  6.340 -6.521  1.697
Cl  6.671 -6.027  0.445

2
Na  5.575 -4.956  1.729
Cl  5.914 -5.295  0.361

2
Na  5.993 -5.501  1.115
Cl  5.688 -4.904 -0.950

2
Na  6.143 -6.926  0.117
Cl  6.360 -4.704 -0.053

2
Na  7.473 -7.139 -0.120
Cl  5.809 -5.730  1.307

2
Na  7.276 -7.055  1.511
Cl  7.584 -5.693  1.813

2
Na  5.792 -7.842  0.120
Cl  6.545 -5.185  0.581

2
Na  7.568 -7.459 -0.119
Cl  7.264 -6.481 -0.002

2
Na  6.467 -7.217 -1.879
Cl  5.740 -5.762 -0.691

2
Na  7.518 -8.584 -0.676
Cl  5.560 -7.293 -0.107

2
Na  7.776 -9.080 -0.321
Cl  4.267 -8.459 -0.474

2
Na  8.942 -7.498 -0.059
Cl  4.931 -9.201 -0.666

2
Na  8.657 -8.616 -0.957
Cl  5.216 -9.006 -0.085

2
Na  8.056 -8.538 -1.899
Cl  6.712 -7.699 -0.040

2
Na  7.200 -8.180 -1.372
Cl  6.653 -7.350 -0.604

2
Na  6.804  9.975 -0.499
Cl  6.363 11.996  0.068

2
Na  6.683 -9.014 -0.068
Cl  8.335 -10.360  0.922

2
Na  6.533 -9.460 -1.024
Cl  8.395 -9.724 -0.090

2
Na  7.362 -7.973 -1.089
Cl  8.540 -10.077 -0.284

2
Na  8.417 -7.930 -1.829
Cl  8.542 -9.027 -1.547

2
Na  9.188 -7.984 -1.529
Cl  8.363 -8.013 -0.589

2
Na  9.952 -7.871 -2.377
Cl  8.165 -6.877 -1.610

2
Na  9.201 -7.436 -3.457
Cl  8.435 -7.825 -2.757

2
Na  8.294 -5.678 -3.437
Cl  8.561 -7.592 -1.364

2
Na  7.095 -5.702 -2.008
Cl  6.038 -8.400 -2.225

2
Na  6.852 -6.310 -2.015
Cl  6.739 -7.742 -3.023

2
Na  6.105 -6.874 -1.690
Cl  6.751 -7.424 -2.140

2
Na  4.233 -5.774 -1.720
Cl  6.627 -8.430 -2.842

2
Na  5.114 -6.103 -1.249
Cl  6.380 -8.724 -2.746

2
Na  6.538 -5.725 -0.332
Cl  7.307 -7.033 -3.275

2
Na  7.373 -5.381 -0.611
Cl  7.832 -7.194 -2.856

2
Na  9.379 -5.477 -0.616
Cl  8.727 -7.265 -1.837

2
Na  7.775 -6.149 -1.462
Cl  9.711 -7.963 -1.738

2
Na  8.009 -6.138 -2.120
Cl  9.321 -6.539 -1.794

2
Na  9.624 -7.308 -3.762
Cl  8.265 -6.721 -2.703

2
Na -9.508 -7.245 -2.145
Cl -11.779 -5.659 -3.571

2
Na -9.082 -8.958 -3.053
Cl -10.280 -5.535 -3.800

2
Na -9.666 -8.575 -2.791
Cl -8.954 -6.381 -4.258

2
Na -9.911 -8.467 -3.959
Cl -7.447 -6.374 -4.751

2
Na -8.585 -9.342 -4.736
Cl -7.840 -7.127 -6.561

2
Na -9.068 -8.856 -4.713
Cl -8.878 -9.541 -4.244

2
Na -8.361 -9.825 -5.677
Cl -9.285 -9.706 -4.499

2
Na -8.338 -9.811 -5.851
Cl -7.849 -9.252 -3.360

2
Na -7.171  8.553 -4.873
Cl -7.468  9.962 -2.487

2
Na -7.600 -9.764 -4.780
Cl -7.912 -9.247 -2.408

2
Na -6.617  9.444 -4.156
Cl -8.237 10.366 -2.009

2
Na -7.619  9.039 -3.935
Cl -9.509 10.482 -2.146

2
Na -7.720  8.798 -2.791
Cl -8.597 10.094 -0.808

2
Na -7.810  9.982 -3.761
Cl -7.312 12.164 -1.353

2
Na -8.737 -8.981 -4.641
Cl -6.833 -7.429 -1.622

2
Na -9.791 -9.405 -3.487
Cl -7.258 -7.018 -2.751

2
Na  9.714 -8.233 -1.868
Cl 12.523 -7.315 -3.026

2
Na  8.941 -9.205 -3.082
Cl 12.015 -7.944 -3.397

2
Na -9.792  9.873 -2.776
Cl -8.413 10.624 -4.273

2
Na  9.174 -9.728 -3.481
Cl 11.452 -10.526 -3.561

2
Na  8.696 -9.498 -3.819
Cl  9.692 -10.074 -3.306

2
Na  8.525 -8.912 -3.801
Cl  9.652 -11.353 -3.538

2
Na  9.292 -9.261 -3.594
Cl 10.773 -10.880 -2.575

2
Na  8.606  9.845 -3.383
Cl 10.148  9.935 -3.104

2
Na  8.520  8.752 -4.878
Cl 10.260  9.682 -3.668

2
Na  8.325  8.816 -5.658
Cl 11.334 10.416 -4.636

2
Na  8.107  8.316 -4.588
Cl 10.054 10.525 -4.828

2
Na  9.107  8.692 -5.549
Cl  9.696  9.449 -5.141

2
Na  8.679  8.306 -5.459
Cl 10.436 10.260 -4.299

2
Na  9.551  7.227 -6.011
Cl 10.104 10.450 -3.680

2
Na -9.775  5.978 -4.580
Cl -9.290  8.589 -3.632

2
Na -9.317  6.515 -5.173
Cl -9.378  7.065 -3.108

2
Na -8.905  6.237 -5.989
Cl -8.525  7.288 -5.097

2
Na -9.793  6.115 -5.616
Cl -7.848  6.558 -5.223

2
Na -8.731  5.937 -5.134
Cl -7.777  5.617 -4.790

2
Na -9.221  5.236 -5.515
Cl -7.370  5.126 -6.051

2
Na  9.861  5.558 -5.188
Cl 12.768  3.788 -6.368

2
Na  9.556  6.781 -6.061
Cl 11.782  3.168 -6.030

2
Na  9.135  6.390 -6.921
Cl 12.316  4.805 -6.445

2
Na -9.780  6.455 -6.318
Cl -8.900  4.785 -6.018

2
Na -9.554  5.663 -5.218
Cl -8.904  5.190 -7.692

2
Na -9.591  5.908 -5.251
Cl -8.668  6.632 -7.321

2
Na -7.654  5.612 -7.372
Cl -9.122  6.097 -8.650

2
Na -7.112  5.063 -7.423
Cl -8.936  6.930 -10.651

2
Na -7.549  4.284 -8.061
Cl -6.934  7.677 -10.298

2
Na -7.479  4.349 -9.444
Cl -7.756  6.337 -10.530

2
Na -8.166  4.184 -9.753
Cl -8.157  6.630 -8.594

2
Na -8.485  5.643 -9.396
Cl -8.693  5.843 -8.588

2
Na -8.344  5.933 -9.938
Cl -8.363  4.590 -9.230

2
Na -8.070  6.319  9.734
Cl -7.143  6.051 10.365

2
Na -9.079  6.152 -8.989
Cl -7.963  6.954 -9.813

2
Na  9.790  4.724  9.799
Cl 11.828  7.149  9.964

2
Na  9.717  5.330  9.936
Cl 12.793  7.254 10.746

2
Na -8.808  6.083  8.138
Cl -6.610  5.873  8.754

2
Na -8.209  7.628  7.969
Cl -6.677  6.831  7.914

2
Na -7.084  7.987  6.970
Cl -8.276  6.406  8.703

2
Na -6.404  8.523  7.560
Cl -8.604  7.267  7.348

2
Na -7.533  8.891  8.916
Cl -9.685  9.047  6.156

2
Na -8.203  8.164  9.623
Cl -9.466  8.830  7.069

2
Na -9.158  7.658  9.715
Cl -10.514  8.026  7.533

2
Na  9.381  7.507  9.845
Cl 10.381  9.091  9.152

2
Na  8.475  8.504 -9.793
Cl  9.888 10.435 -10.515

2
Na  7.944  8.831  9.366
Cl  8.568 10.133  9.060

2
Na  8.917  8.218  9.155
Cl  9.349 10.774  8.954

2
Na  8.603  8.605  9.799
Cl  9.810 11.687  9.762

2
Na  9.168  9.396  9.670
Cl  9.427 12.561  9.574

2
Na  8.844  9.655  8.321
Cl  9.431 12.111  8.928

2
Na  9.320 -9.394  6.779
Cl 10.812 -7.300  8.967

2
Na -9.719 -9.957  7.787
Cl -7.564 -7.570  8.971

2
Na -9.259 -9.414  9.433
Cl -7.934 -8.825  8.679

2
Na -8.020 -8.937  9.112
Cl -6.378 -7.408  9.562

2
Na -5.877 -9.891  9.095
Cl -5.157 -8.611 10.376

2
Na -6.558 -9.192  9.894
Cl -5.865 -8.004  9.169

2
Na -6.842 -9.151 -8.161
Cl -5.771 -7.770 -10.500

2
Na -7.202 -9.919 -8.252
Cl -6.199 -8.156 -10.038

2
Na -6.064 -9.508 -9.581
Cl -6.827 -8.999 -9.909

2
Na -4.564 -9.566 -9.248
Cl -6.248 -7.873 -8.823

2
Na -3.332 -8.742 -9.287
Cl -5.580 -7.219 -8.277

2
Na -3.713 -8.887 -9.564
Cl -5.236 -8.189 -9.023

2
Na -3.797 -8.030  9.513
Cl -4.579 -7.239  9.027

2
Na -3.530 -8.146 -9.720
Cl -4.291 -6.295 -11.668

2
Na -3.996 -9.216 -9.187
Cl -4.445 -6.917 -10.588

2
Na -4.042 -6.988  9.248
Cl -5.636 -7.760 10.618

2
Na -6.128 -8.219  8.724
Cl -4.437 -9.195 11.079

2
Na -5.761 -8.891  7.742
Cl -4.016 -9.531  9.913

2
Na -4.227 -9.021  7.140
Cl -3.922 -9.024  8.455

2
Na -4.087 -7.440  6.476
Cl -4.190 -9.199  6.927

2
Na -3.750 -6.716  9.187
Cl -4.281 -9.665  7.251

2
Na -3.645 -6.957  9.317
Cl -3.270 -8.835  8.011

2
Na -3.487 -7.457  9.732
Cl -2.371 -8.933  7.679

2
Na -4.064 -8.003 -9.450
Cl -2.822 -7.820 -10.681

2
Na -4.268 -8.848 -9.761
Cl -1.272 -7.512 -10.973

2
Na -2.201 -7.957  9.835
Cl -2.878 -6.076 11.301

2
Na -2.689 -7.625  9.771
Cl -4.423 -7.213  9.717

2
Na -2.292 -6.027  7.819
Cl -5.121 -6.367  8.521

2
Na -3.040 -5.709  7.359
Cl -5.160 -7.429  8.223

2
Na -4.026 -7.002  6.712
Cl -5.111 -7.595  7.109

2
Na -3.515 -5.798  6.307
Cl -5.508 -8.315  6.264

2
Na -5.073 -6.049  6.496
Cl -4.980 -7.242  6.712

2
Na -6.724 -5.125  5.863
Cl -5.368 -7.930  6.738

2
Na -6.879 -5.721  5.117
Cl -6.826 -7.861  6.806

2
Na -7.145 -6.645  5.089
Cl -7.077 -6.524  9.729

2
Na -6.467 -6.575  6.134
Cl -5.825 -8.149  9.921

2
Na -7.057 -5.908  5.589
Cl -5.550 -8.021  9.537

2
Na -6.923 -7.087  5.858
Cl -6.414 -7.490  9.297

2
Na -6.380 -6.966  7.484
Cl -6.955 -7.157 10.044

2
Na -6.466 -7.868  7.847
Cl -8.449 -6.909 10.128

2
Na -6.141 -7.621  8.072
Cl -7.033 -6.899 10.877

2
Na -7.244 -6.294  8.244
Cl -6.696 -4.947 11.330

2
Na -6.810 -6.672  8.855
Cl -4.105 -5.609 10.894

2
Na -5.775 -6.632  9.169
Cl -4.084 -4.617 10.762

2
Na -4.384 -7.358  9.925
Cl -3.950 -4.657 10.379

2
Na -4.188 -7.876  9.351
Cl -4.446 -5.337  8.362

2
Na -3.604 -7.376  8.834
Cl -3.173 -5.154  8.490

2
Na -3.048 -8.150  9.097
Cl -4.305 -5.150  7.682

2
Na -2.637 -8.332  8.418
Cl -5.495 -4.932  6.223

2
Na -2.399 -7.918  9.058
Cl -4.329 -5.196  6.634

2
Na -3.594 -7.892  8.926
Cl -5.089 -4.516  7.515

2
Na -3.211 -5.785  9.637
Cl -4.639 -5.870  8.370

2
Na -2.236 -5.134  8.217
Cl -5.205 -4.434  8.461

2
Na -1.535 -3.548  7.756
Cl -4.497 -4.883  8.854

2
Na -2.286 -3.244  8.471
Cl -3.887 -4.987  9.764

2
Na -1.882 -1.897  8.632
Cl -3.538 -3.847 10.859

2
Na -3.247 -1.584  8.143
Cl -3.128 -2.417 10.718

2
Na -1.989 -1.529  8.679
Cl -3.158 -2.250 11.368

2
Na -2.031 -0.984  7.752
Cl -1.995 -2.452 10.984

2
Na -0.699 -0.642  9.018
Cl -1.338 -0.546 10.795

2
Na -0.196 -0.218  8.613
Cl  0.454 -0.410 10.044

2
Na -1.668 -0.024  8.853
Cl  1.491 -1.122  9.523

2
Na -0.312 -0.228  9.476
Cl  1.596 -2.919  9.331

2
Na -0.445 -0.633 -9.876
Cl  0.723 -3.256 -11.709

2
Na -0.938 -1.507 -8.648
Cl  0.477 -3.507 -10.819

2
Na -2.039 -0.555 -9.869
Cl  0.849 -2.930 -11.028

2
Na -1.772  0.108  8.603
Cl  1.568 -1.619  9.373

2
Na -0.593  0.559  9.210
Cl  0.391  0.011  9.894

2
Na  0.269 -0.039  8.444
Cl -0.098  0.825  9.289

2
Na -0.501  0.133  8.072
Cl -0.282  2.449  8.767

2
Na -0.008  0.156  7.563
Cl -0.152  1.018  8.416

2
Na  0.450 -2.179  7.469
Cl  1.381  0.006  8.552

2
Na  1.134 -0.573  5.870
Cl  3.899 -0.531  8.084

2
Na  2.424 -0.771  5.249
Cl  5.568  0.755  6.842

2
Na  2.526 -0.758  4.420
Cl  7.171  0.258  6.130

2
Na  3.225 -0.172  4.203
Cl  5.930  1.687  6.477

2
Na  3.482 -0.164  4.758
Cl  4.504  0.680  6.338

2
Na  3.943  0.546  4.598
Cl  4.288  2.456  7.037

2
Na  2.772  1.729  3.498
Cl  4.134  3.711  6.958

2
Na  2.319  1.762  4.342
Cl  3.595  3.509  7.046

2
Na  1.923  2.127  4.857
Cl  4.219  3.383  6.990

2
Na  1.179  2.892  4.638
Cl  2.859  3.935  5.946

2
Na  1.361  3.423  4.235
Cl  3.031  4.097  4.054

2
Na  0.689  4.934  4.915
Cl  2.833  3.546  4.665

2
Na -0.295  4.810  5.051
Cl  1.502  3.211  4.381

2
Na  0.399  3.554  5.731
Cl  1.525  3.250  3.837

2
Na  1.239  3.548  6.588
Cl  1.728  4.537  5.014

2
Na  1.196  3.845  6.314
Cl  1.596  3.295  5.473

2
Na  1.503  4.480  4.909
Cl  3.389  3.579  5.877

2
Na  1.350  5.195  5.244
Cl  3.045  5.106  5.183

2
Na -0.436  4.857  5.145
Cl  2.729  5.972  5.947

2
Na  1.612  5.018  5.812
Cl  1.909  5.841  7.761

2
Na -0.260  2.849  5.801
Cl  2.103  5.296  7.391

2
Na  0.053  4.730  5.904
Cl  1.260  4.555  8.679

2
Na  0.230  5.177  5.632
Cl  1.722  5.549  6.724

2
Na  0.402  5.469  7.096
Cl  1.917  5.240  7.364

2
Na  1.217  4.701  6.160
Cl  2.531  5.403  7.961

2
Na  0.343  4.446  6.273
Cl  2.390  3.836  8.425

2
Na -0.358  5.012  5.831
Cl  2.843  4.866  7.846

2
Na -0.546  4.026  7.128
Cl  1.992  5.302  7.436

2
Na -1.501  4.534  8.231
Cl  0.728  5.854  7.900

2
Na -2.333  5.778  7.331
Cl  0.175  6.070  9.556

2
Na -0.177  5.557  7.016
Cl -0.753  5.593 10.067

2
Na  1.458  4.978  8.293
Cl -0.263  5.358 10.216

2
Na  1.547  3.279  7.572
Cl  0.936  4.668 10.211

2
Na -0.221  3.053  6.950
Cl -1.416  3.862 10.060

2
Na  1.087  2.695  7.112
Cl -0.069  3.278  9.218

2
Na  0.732  2.899  6.698
Cl -0.716  4.582  8.626

2
Na -0.770  2.752  8.093
Cl  0.251  4.957  9.050

2
Na  0.723  2.361  7.962
Cl  1.938  5.254  8.146

2
Na  1.335  3.187  8.435
Cl  3.146  6.166  8.479

2
Na  1.340  3.930  8.228
Cl  2.600  5.121  7.087

2
Na  2.075  3.497  8.804
Cl  2.791  4.613  7.857

2
Na  2.170  1.614  8.002
Cl  1.843  4.329  8.234

2
Na  3.163  2.201  7.365
Cl  2.951  4.604  7.447

2
Na  3.248  2.633  6.732
Cl  3.435  4.903  7.839

2
Na  4.600  1.506  7.652
Cl  2.792  5.533  9.037

2
Na  3.603  0.930  6.966
Cl  3.872  4.663  8.247

2
Na  3.330  1.904  7.111
Cl  3.741  5.545  7.075

2
Na  3.372  2.036  7.001
Cl  2.609  4.899  6.706

2
Na  1.340  2.740  8.736
Cl  3.460  4.231  6.861

2
Na  1.224  3.740  9.049
Cl  3.229  3.592  9.051

2
Na -0.204  2.742  8.749
Cl  2.810  3.460  8.794

2
Na -0.697  1.624  7.656
Cl  1.796  4.569  8.326

2
Na -0.617  1.459  8.611
Cl  0.791  4.415  7.647

2
Na -0.933  1.501  7.272
Cl  0.989  4.101  7.698

2
Na -2.301  3.374  6.154
Cl  0.143  3.152  5.944

2
Na -2.083  4.224  5.595
Cl -0.497  2.574  8.047

2
Na -2.189  4.432  5.860
Cl -0.199  2.955  7.461

2
Na -2.163  4.229  6.481
Cl  0.165  3.369  8.835

2
Na -1.830  3.246  7.855
Cl -0.365  2.968  9.163

2
Na -1.498  2.110  7.522
Cl  0.848  2.150  9.296

2
Na -1.914  1.925  9.256
Cl  0.801  2.177  9.408

2
Na -1.418  1.779  8.041
Cl  1.060  1.299  8.982

2
Na -2.286  0.979  7.844
Cl -0.686  2.545  9.386

2
Na -1.608  0.797  8.809
Cl -1.024  2.634  9.463

2
Na -1.016  0.411  8.076
Cl -1.237  2.596  9.267

2
Na -0.045  1.849  8.967
Cl -2.184  3.666  9.409

2
Na  0.400  1.371  9.518
Cl -2.973  4.025  9.694

2
Na -0.739  2.152  9.147
Cl -3.257  4.078  8.721

2
Na -1.024  1.248  8.964
Cl -2.749  4.115  9.143

2
Na -0.797  2.467  8.330
Cl -3.718  3.294  9.047

2
Na -0.867  2.906 -9.213
Cl -2.540  2.304 -9.636

2
Na -0.164  2.388 -9.066
Cl -3.395  1.836 -9.387

2
Na -0.828  1.860 -9.304
Cl -2.027  1.037 -9.236

2
Na -0.908  3.135 -8.101
Cl -2.033  1.288 -10.317

2
Na -0.897  3.707 -8.387
Cl -2.681  2.685 -8.833

2
Na -2.068  2.797 -9.641
Cl -4.130  3.679 -7.109

2
Na -1.367  2.401 -8.700
Cl -2.646  3.951 -9.578

2
Na -1.707  2.340 -7.636
Cl -2.005  4.007 -7.452

2
Na -0.212  1.598 -7.190
Cl -1.195  3.944 -7.099

2
Na -0.692  1.241 -7.323
Cl -2.562  3.814 -7.569

2
Na -0.817  1.981 -7.081
Cl -0.158  3.262 -6.571

2
Na -1.785  1.033 -8.203
Cl -2.427  2.689 -8.265

2
Na -1.544  1.841 -8.321
Cl -3.157  3.296 -7.802

2
Na -2.537  1.692 -6.052
Cl -3.324  4.433 -7.133

2
Na -2.052  1.648 -5.693
Cl -3.564  3.628 -5.541

2
Na -1.119  1.816 -7.234
Cl -3.332  3.497 -5.432

2
Na -1.416  2.375 -7.532
Cl -2.115  3.571 -5.622

2
Na -2.123  2.424 -6.020
Cl -2.412  4.610 -5.379

2
Na -2.360  1.969 -8.687
Cl -3.124  5.316 -6.100

2
Na -2.196  2.035 -7.897
Cl -4.279  4.347 -4.740

2
Na -3.254  2.718 -7.184
Cl -3.496  4.883 -6.655

2
Na -2.607  3.783 -9.325
Cl -2.219  4.848 -7.615

2
Na -2.515  5.277 -9.238
Cl -0.282  4.600 -6.811

2
Na -0.142  5.889  9.876
Cl  0.218  4.831 13.107

2
Na  1.050  6.084 -8.645
Cl  0.845  5.547 -7.160

2
Na  2.057  6.800 -7.262
Cl  1.674  5.798 -8.381

2
Na  2.189  8.863 -6.992
Cl  1.148  6.002 -7.748

2
Na  0.731  8.015 -6.913
Cl -0.262  7.341 -7.554

2
Na  2.302  7.555 -5.830
Cl  0.082  7.381 -7.292

2
Na  2.406  6.233 -5.968
Cl  0.674  7.339 -7.074

2
Na  1.507  6.473 -4.357
Cl  0.288  6.690 -6.280

2
Na  1.009  7.647 -4.614
Cl -0.847  5.846 -5.879

2
Na  0.827  8.389 -4.167
Cl -1.416  6.664 -5.391

2
Na -0.464  8.698 -3.874
Cl -0.340  6.823 -5.168

2
Na -1.021  7.994 -3.836
Cl -2.247  6.666 -4.919

2
Na -0.228  8.697 -5.071
Cl -2.491  6.064 -5.855

2
Na -0.677  9.129 -5.284
Cl -1.392  6.574 -5.341

2
Na  0.199  9.202 -4.534
Cl -1.202  7.817 -4.642

2
Na  0.804  9.882 -3.418
Cl -1.488  8.791 -3.039

2
Na -0.049  9.998 -4.736
Cl -1.870  8.198 -3.469

2
Na  1.995  9.724 -4.181
Cl -2.573  7.839 -3.715

2
Na  3.217  9.944 -5.388
Cl -1.923  8.339 -5.353

2
Na  0.888 -9.952 -4.646
Cl -1.979 -10.680 -5.355

2
Na  0.510 -9.508 -3.352
Cl -0.305 -11.547 -5.644

2
Na  1.136 -8.145 -4.097
Cl  0.428 -10.627 -4.008

2
Na  0.486 -8.904 -2.642
Cl -1.297 -8.980 -3.853

2
Na -0.866 -9.295 -2.211
Cl -0.782 -10.806 -3.641

2
Na  0.193 -9.465 -1.803
Cl -0.418 -10.859 -2.080

2
Na -0.157 -8.977 -2.791
Cl  0.289 -10.975 -3.179

2
Na  0.429 -9.619 -2.862
Cl -1.268 -9.762 -3.883

2
Na  0.932 -9.090 -4.448
Cl -0.354 -8.957 -2.056

2
Na  1.623 -9.451 -4.564
Cl -0.244 -7.401 -1.407

2
Na  0.907 -8.341 -3.970
Cl -0.390 -7.762 -1.892

2
Na  2.502 -8.667 -4.595
Cl -0.962 -8.800 -1.168

2
Na  2.899 -9.331 -3.295
Cl -0.275 -8.389 -0.926

2
Na  2.492 -8.737 -3.140
Cl -0.108 -8.562 -2.362

2
Na  0.774 -8.228 -3.598
Cl  0.043 -7.957 -2.271

2
Na -0.056 -7.477 -2.705
Cl  0.011 -8.075 -2.131

2
Na -0.194 -7.829 -3.182
Cl  0.678 -7.570 -0.521

2
Na -1.057 -7.462 -2.272
Cl  0.542 -6.701 -0.003

2
Na -1.377 -7.254 -1.593
Cl -1.882 -7.647 -0.423

2
Na -2.140 -8.010 -1.621
Cl -1.891 -7.247  0.752

2
Na -1.002 -7.744 -2.211
Cl -2.247 -8.542  1.291

2
Na -1.478 -7.916 -3.061
Cl -2.923 -8.693  0.870

2
Na -0.555 -6.952 -2.687
Cl -4.065 -9.202 -1.903

2
Na -1.247 -5.236 -3.089
Cl -4.481 -8.022 -2.049

2
Na -2.324 -4.559 -2.457
Cl -2.809 -8.227 -1.797

2
Na -1.412 -5.351 -2.012
Cl -3.263 -8.741 -2.853

2
Na -1.642 -5.705 -3.144
Cl -3.511 -8.424 -3.672

2
Na -1.471 -4.702 -3.603
Cl -2.850 -8.535 -4.822

2
Na -1.632 -5.295 -4.768
Cl -3.677 -7.576 -4.439

2
Na -2.387 -6.229 -3.890
Cl -2.968 -8.271 -4.413

2
Na -1.703 -5.282 -4.738
Cl -2.344 -8.114 -3.436

2
Na -2.743 -4.426 -3.692
Cl -1.099 -6.328 -3.703

2
Na -3.825 -4.441 -3.551
Cl -1.490 -6.614 -2.652

2
Na -1.508 -4.923 -3.351
Cl -1.471 -6.832 -1.971

2
Na -2.639 -3.898 -3.856
Cl -0.559 -4.071 -0.844

2
Na -2.194 -4.228 -3.516
Cl -1.187 -3.804 -2.251

2
Na -1.511 -3.155 -4.941
Cl -1.944 -3.665 -4.958

2
Na -2.992 -2.520 -5.077
Cl -3.282 -2.425 -4.635

2
Na -2.672 -3.682 -5.753
Cl -3.118 -1.661 -4.854

2
Na -3.686 -3.960 -6.916
Cl -1.595 -3.597 -4.914

2
Na -2.165 -2.388 -6.359
Cl -0.485 -4.274 -5.368

2
Na -2.312 -2.083 -6.464
Cl -0.771 -3.815 -6.271

2
Na -1.680 -4.086 -6.100
Cl  0.391 -4.925 -7.271

2
Na -1.734 -4.776 -7.054
Cl  0.442 -6.542 -7.411

2
Na -1.804 -5.814 -6.296
Cl  1.280 -6.664 -5.731

2
Na -0.913 -6.107 -6.799
Cl  1.353 -7.183 -5.729

2
Na -0.190 -5.085 -6.970
Cl  1.226 -6.889 -6.839

2
Na  0.412 -5.662 -7.791
Cl  1.711 -8.148 -8.173

2
Na  0.392 -6.315 -6.332
Cl  2.291 -8.359 -7.697

2
Na -0.648 -7.523 -6.398
Cl  1.731 -8.360 -7.430

2
Na -0.432 -6.543 -5.567
Cl  0.444 -8.026 -9.410

2
Na -0.168 -6.995 -5.297
Cl -0.494 -8.338 -9.604

2
Na -0.616 -8.165 -6.094
Cl -0.196 -7.976 -9.753

2
Na -0.612 -8.085 -5.642
Cl -0.234 -8.383 -7.620

2
Na  0.144 -8.270 -4.735
Cl -0.517 -7.610 -6.793

2
Na  0.625 -8.464 -5.185
Cl -0.594 -6.457 -6.463

2
Na -0.038 -7.473 -5.094
Cl -0.634 -5.165 -4.983

2
Na  1.093 -6.307 -4.950
Cl -0.788 -4.909 -3.620

2
Na  2.168 -7.018 -4.068
Cl  0.076 -6.085 -4.023

2
Na  2.206 -6.241 -3.877
Cl  0.746 -4.720 -4.562

2
Na  2.343 -6.842 -3.245
Cl  1.380 -4.523 -5.596

2
Na  0.108 -5.820 -1.850
Cl  1.362 -4.923 -3.329

2
Na  0.202 -4.938 -0.766
Cl  1.353 -6.439 -2.251

2
Na -0.529 -5.170 -0.993
Cl  0.009 -5.422 -3.402

2
Na  0.840 -5.469 -1.464
Cl -0.505 -5.638 -2.766

2
Na -0.432 -5.653 -1.055
Cl  0.437 -5.999 -2.650

2
Na -1.278 -7.406 -0.833
Cl  0.898 -6.368 -3.381

2
Na -1.318 -5.708 -1.672
Cl  0.633 -6.410 -1.942

2
Na -1.998 -5.740 -1.986
Cl  0.437 -7.990 -3.063

2
Na -2.380 -4.809 -3.012
Cl  1.427 -6.591 -3.319

2
Na -0.904 -5.294 -1.955
Cl  1.636 -7.071 -4.962

2
Na -0.609 -5.051 -2.151
Cl  1.046 -6.335 -4.239

2
Na -0.714 -5.274 -2.891
Cl  0.678 -5.901 -4.161

2
Na  0.295 -6.820 -1.526
Cl  0.173 -7.603 -4.122

2
Na  0.603 -6.995 -4.342
Cl -0.397 -7.817 -4.782

2
Na -0.769 -7.559 -4.770
Cl -0.671 -8.220 -4.746

2
Na  0.020 -6.954 -4.966
Cl -0.153 -10.697 -4.139

2
Na -1.990 -8.532 -3.565
Cl -1.093 -10.030 -4.365

2
Na -1.396 -8.374 -4.773
Cl -1.275 -10.407 -4.028

2
Na -1.527 -7.888 -4.391
Cl -1.668 -10.553 -4.061

2
Na -2.400 -7.631 -4.460
Cl -0.983 -10.099 -2.429

2
Na -2.825 -8.137 -3.321
Cl -1.166 -10.116 -2.458

2
Na -2.741 -8.688 -3.101
Cl -0.724 -10.952 -2.590

2
Na -2.449 -8.311 -4.023
Cl -0.530 -10.691 -4.208

2
Na -3.507 -9.937 -4.710
Cl -0.550 -11.758 -3.799

2
Na -2.903 -9.646 -4.941
Cl  0.084 -11.965 -3.437

2
Na -2.261 -8.892 -4.174
Cl -0.157 -11.848 -4.270

2
Na -1.436 -8.714 -4.068
Cl  0.680 -11.356 -3.674

2
Na -0.242 -9.516 -4.890
Cl  0.631 -11.754 -4.300

2
Na  1.163 -9.110 -5.808
Cl  1.036 -12.875 -3.789

2
Na  1.360 -9.973 -4.738
Cl  2.318 -12.117 -2.369

2
Na  1.105  8.567 -5.211
Cl  1.765  7.406 -3.007

2
Na -0.151  8.461 -5.648
Cl  3.506  7.148 -3.671

2
Na -1.172  8.224 -5.735
Cl  3.480  8.245 -2.851

2
Na  0.110  6.961 -5.384
Cl  2.244  7.738 -2.484

2
Na  0.024  8.632 -5.774
Cl  0.602  6.387 -3.758

2
Na -0.184  7.312 -5.078
Cl -0.013  6.476 -3.794

2
Na -0.435  6.630 -5.616
Cl  0.115  7.519 -5.040

2
Na  1.024  7.096 -4.864
Cl -0.370  6.123 -6.173

2
Na  0.300  6.663 -5.413
Cl  0.407  6.975 -5.999

2
Na  1.519  7.180 -5.689
Cl  1.545  7.486 -5.662

2
Na  0.904  6.815 -3.866
Cl  0.737  8.187 -6.313

2
Na  1.303  7.456 -2.610
Cl  1.946  7.248 -5.894

2
Na  1.088  8.128 -2.438
Cl  1.284  6.408 -5.256

2
Na  1.012  8.216 -3.176
Cl  1.354  7.469 -4.662

2
Na  0.669  7.460 -3.311
Cl  1.196  7.182 -5.483

2
Na  1.214  7.511 -5.153
Cl  0.849  8.091 -7.083

2
Na  1.871  8.206 -5.431
Cl -0.119  6.710 -7.476

2
Na  1.096  9.116 -5.536
Cl -0.460  7.439 -8.019

2
Na  1.115  8.828 -4.732
Cl -1.398  8.436 -7.633

2
Na  1.217  7.079 -6.147
Cl -1.453  7.089 -9.205

2
Na  0.541  7.452 -7.191
Cl -2.202  8.217 -9.048

2
Na  0.756  8.574 -7.809
Cl -2.170  8.077 -8.291

2
Na -0.496  9.116 -6.163
Cl -0.850  8.599 -8.317

2
Na -0.727  8.150 -5.470
Cl -1.614  8.467 -7.545

2
Na -0.694  7.685 -6.271
Cl -1.255  8.140 -8.253

2
Na -1.980  7.519 -7.263
Cl -0.373  6.664 -9.499

2
Na -2.636  9.402 -7.423
Cl -1.004  8.568 -8.087

2
Na -2.637  7.399 -7.563
Cl -1.151  6.814 -6.535

2
Na -2.056  5.977 -7.268
Cl  0.881  7.207 -6.418

2
Na -1.111  5.224 -7.705
Cl  0.902  7.241 -6.578

2
Na -1.497  5.321 -7.618
Cl  0.024  5.850 -7.372

2
Na -2.778  5.011 -7.043
Cl -0.396  5.959 -6.472

2
Na -1.859  7.372 -8.374
Cl  0.251  5.645 -6.180

2
Na -1.779  6.072 -7.722
Cl  0.980  7.267 -5.836

2
Na -1.493  7.808 -8.496
Cl  1.095  7.006 -5.778

2
Na -0.131  6.962 -8.045
Cl  1.493  6.786 -7.079

2
Na -0.639  6.117 -7.975
Cl  0.672  5.742 -7.098

2
Na -0.092  4.773 -6.321
Cl  1.157  5.523 -6.467

2
Na -1.142  4.909 -5.283
Cl  1.589  5.799 -6.524

2
Na -0.586  6.369 -4.937
Cl  1.546  6.011 -6.349

2
Na  0.207  4.552 -5.594
Cl -0.121  6.766 -4.840

2
Na  0.531  5.223 -3.749
Cl -1.659  7.101 -3.399

2
Na  1.728  7.128 -4.068
Cl -0.955  7.386 -5.106

2
Na  2.604  6.359 -4.687
Cl -0.128  8.101 -6.802

2
Na  1.855  5.950 -5.823
Cl -0.370  8.897 -6.382

2
Na  1.989  7.336 -7.742
Cl -0.801  8.856 -6.800

2
Na  0.708  7.328 -7.070
Cl -0.202  8.974 -8.010

2
Na -0.702  7.819 -5.465
Cl  0.140  8.468 -8.635

2
Na -0.594  7.618 -6.346
Cl -0.830  7.935 -8.425

2
Na -0.479  8.034 -7.723
Cl -1.135  8.529 -8.850

2
Na -0.969  7.493 -9.169
Cl -1.605  8.060 -8.385

2
Na -1.564  7.871 -8.627
Cl -0.857  8.195 -7.416

2
Na  0.303  6.510 -7.535
Cl -1.603  8.728 -8.025

2
Na -1.183  5.314 -7.760
Cl -0.191  8.346 -8.514

2
Na -2.863  6.783 -8.264
Cl -1.433  7.486 -10.192

2
Na -2.951  6.616 -7.997
Cl -1.759  7.599 -10.270

2
Na -3.047  6.236 -7.877
Cl -2.008  8.248 -10.610

2
Na -3.394  5.941 -9.095
Cl -1.606  8.560 -10.123

2
Na -4.177  5.966 -9.771
Cl -1.578  8.708 -10.589

2
Na -4.023  5.758 -9.019
Cl -3.977  8.374 -10.494

2
Na -3.992  5.735 -9.772
Cl -4.701  7.367 -9.102

2
Na -4.504  5.442 -9.332
Cl -3.965  7.697 -10.664

2
Na -4.673  4.951 -9.423
Cl -4.210  8.822 -10.803

2
Na -4.487  4.380  9.486
Cl -4.382  8.651  9.251

2
Na -5.059  4.502  8.928
Cl -3.011  7.606  8.178

2
Na -5.851  4.856  7.844
Cl -4.355  6.646  7.566

2
Na -6.882  5.165  7.436
Cl -4.320  6.151  7.781

2
Na -7.525  4.428  7.159
Cl -5.007  4.459  7.459

2
Na -8.136  5.880  6.688
Cl -4.825  5.061  6.578

2
Na -7.498  5.792  6.329
Cl -6.509  5.276  8.676

2
Na -6.836  5.365  6.750
Cl -6.699  5.667  9.371

2
Na -5.640  6.489  7.844
Cl -5.358  5.152  9.176

2
Na -6.731  7.130  6.370
Cl -5.972  5.899  9.444

2
Na -5.728  7.649  5.963
Cl -5.247  5.967 10.480

2
Na -4.882  6.670  5.236
Cl -5.663  6.971  8.923

2
Na -3.834  7.425  4.939
Cl -4.308  8.096  8.287

2
Na -4.950  6.373  5.340
Cl -5.234  7.822  8.553

2
Na -4.592  7.638  5.696
Cl -5.340  7.777  8.310

2
Na -4.215  8.565  6.500
Cl -4.417  8.556  8.705

2
Na -3.753  7.957  5.228
Cl -4.529  8.919  7.330

2
Na -4.652  6.271  6.423
Cl -4.753  7.714  7.546

2
Na -4.603  5.775  5.787
Cl -5.769  7.110  7.409

2
Na -4.891  5.914  5.418
Cl -5.409  7.142  7.460

2
Na -4.634  5.819  5.283
Cl -5.444  7.521  6.593

2
Na -4.910  5.479  3.751
Cl -5.127  7.647  6.719

2
Na -4.918  5.826  3.695
Cl -3.854  7.209  6.418

2
Na -5.228  5.814  3.034
Cl -3.761  7.765  5.416

2
Na -5.553  6.110  3.754
Cl -3.980  6.689  4.558

2
Na -5.221  6.076  4.313
Cl -3.200  6.002  3.783

2
Na -6.361  6.379  3.906
Cl -3.697  5.949  3.256

2
Na -6.772  7.213  4.411
Cl -3.885  6.809  3.799

2
Na -6.602  7.006  2.397
Cl -3.885  6.011  4.642

2
Na -6.108  6.662  3.783
Cl -3.908  8.071  4.570

2
Na -4.821  7.757  3.755
Cl -4.311  7.858  5.921

2
Na -4.496  7.241  3.627
Cl -3.311  7.813  5.755

2
Na -5.133  7.025  3.821
Cl -3.173  6.695  4.672

2
Na -4.635  7.681  4.347
Cl -3.057  5.864  4.721

2
Na -4.727  7.220  4.254
Cl -4.302  6.857  5.366

2
Na -4.733  7.027  3.642
Cl -5.111  8.200  5.579

2
Na -5.428  7.282  2.249
Cl -6.328  8.478  5.365

2
Na -6.149  8.222  2.446
Cl -5.797  7.725  5.017

2
Na -6.998  8.551  1.524
Cl -6.393  7.254  4.747

2
Na -7.004  8.048  1.986
Cl -5.804  7.530  4.660

2
Na -7.272  6.619  2.511
Cl -6.076  7.399  3.182

2
Na -9.431  7.329  1.726
Cl -7.510  6.688 -0.090

2
Na -9.838  7.097  0.308
Cl -9.157  5.783  0.660

2
Na  9.095  6.554  0.637
Cl 10.948  6.438  0.062

2
Na -9.491  6.887  0.904
Cl -9.240  6.253 -0.930

2
Na -9.709  7.135  0.570
Cl -7.186  6.115 -0.879

2
Na -9.340  7.157  0.733
Cl -5.418  6.272  0.601

2
Na -9.340  7.809  0.207
Cl -7.182  6.911  0.624

2
Na -8.705  7.749  2.257
Cl -8.085  7.025  0.701

2
Na -6.914  7.376  1.399
Cl -6.460  6.202  0.334

2
Na -7.952  7.821 -0.058
Cl -6.732  3.926  0.630

2
Na -7.818  7.968  0.046
Cl -5.374  5.334  0.168

2
Na -6.930  7.541 -0.725
Cl -5.198  4.014 -0.269

2
Na -6.187  5.312 -0.685
Cl -5.878  3.341 -1.344

2
Na -6.003  6.108 -1.303
Cl -5.945  3.874 -1.280

2
Na -6.191  4.732 -2.278
Cl -6.089  2.188 -2.749

2
Na -6.100  2.850 -1.930
Cl -5.158  1.133 -2.430

2
Na -4.269  3.313 -1.280
Cl -4.279  0.759 -3.358

2
Na -5.247  2.475 -0.933
Cl -4.371  0.692 -2.814

2
Na -6.282  2.700 -0.384
Cl -3.867  0.774 -2.876

2
Na -5.730  1.745 -0.024
Cl -2.234  1.043 -2.520

2
Na -4.799  2.294 -0.152
Cl -1.607  1.818 -0.609

2
Na -5.007  2.054 -1.005
Cl -2.369  1.489  0.063

2
Na -5.742  1.193 -1.132
Cl -4.096  2.400 -0.356

2
Na -3.731  0.221 -1.688
Cl -3.122  3.433 -1.630

2
Na -4.916  0.443 -0.786
Cl -3.285  3.524 -1.208

2
Na -4.070  0.873  0.031
Cl -2.703  2.698 -0.076

2
Na -3.437  0.824 -1.609
Cl -4.625  2.464  0.200

2
Na -4.623 -0.039 -0.822
Cl -4.096  2.674 -0.084

2
Na -4.107  0.319 -0.454
Cl -5.002  3.257  0.213

2
Na -4.070  2.477 -1.001
Cl -5.135  2.816  1.355

2
Na -4.816  2.841 -1.269
Cl -4.778  1.561  1.846

2
Na -5.223  2.274  0.793
Cl -6.367  1.526  1.891

2
Na -7.025  2.764  2.329
Cl -6.781  0.852  2.030

2
Na -7.578  1.919  3.410
Cl -8.905  1.303  1.850

2
Na -6.258  1.748  4.285
Cl -10.266  1.632  1.494

2
Na -6.840  1.679  2.815
Cl -9.929  1.240  1.211

2
Na -7.530  2.695  3.033
Cl -9.662  2.050  1.424

2
Na -7.686  2.214  3.769
Cl -9.287  0.961  1.621

2
Na -8.405  3.592  3.605
Cl -7.637 -0.189  2.203

2
Na -9.194  3.435  4.512
Cl -7.667  0.895  1.760

2
Na  9.530  1.597  4.805
Cl 13.059  1.035  1.811

2
Na -9.379  1.377  4.938
Cl -7.115  0.766  3.163

2
Na -9.069  2.258  4.721
Cl -7.840  1.619  2.352

2
Na  9.893  1.993  5.495
Cl 11.334  1.965  2.249

2
Na -9.622  3.667  3.856
Cl -7.332  3.051  1.319

2
Na -9.275  4.558  3.989
Cl -8.533  2.083  2.673

2
Na  8.999  3.903  2.715
Cl 11.135  1.506  1.775

2
Na  8.987  4.590  3.575
Cl 10.431  2.186  2.759

2
Na  9.945  5.531  3.607
Cl  9.921  3.486  1.334

2
Na -9.964  5.217  3.886
Cl -11.029  1.890  1.621

2
Na -9.201  4.178  3.406
Cl -10.701  1.940  1.891

2
Na  9.682  4.282  3.485
Cl 10.119  3.842  3.107

2
Na  9.323  4.384  2.941
Cl 10.088  2.973  2.552

2
Na -9.227  3.966  4.545
Cl -8.664  2.975  1.088

2
Na -8.305  3.315  4.222
Cl -8.368  2.440  3.304

2
Na -7.398  2.985  3.755
Cl -8.242  1.898  4.040

2
Na -6.949  2.298  3.027
Cl -7.795  3.626  1.186

2
Na -8.023  3.065  2.452
Cl -6.179  4.074  1.759

2
Na -7.599  3.428  3.242
Cl -7.104  4.145 -0.195

2
Na -5.963  3.217  3.661
Cl -6.909  4.019  0.879

2
Na -6.807  3.058  2.290
Cl -7.003  4.961 -0.069

2
Na -7.782  2.911  0.650
Cl -7.315  4.779 -0.671

2
Na -8.294  2.553  1.623
Cl -6.895  4.508  0.045

2
Na -8.831  2.696  2.638
Cl -6.533  3.209  0.782

2
Na -7.649  3.283  3.767
Cl -6.189  2.849  0.835

2
Na -6.440  2.845  3.471
Cl -5.110  2.093  0.835

2
Na -7.778  1.824  2.271
Cl -4.632  1.774  1.071

2
Na -8.373  3.338  2.520
Cl -5.300  2.483  1.853

2
Na -8.506  3.186  2.182
Cl -5.076  3.259  1.562

2
Na -7.221  2.125  2.703
Cl -4.934  3.073  1.744

2
Na -5.982  3.309  4.419
Cl -4.897  2.505  1.667

2
Na -6.165  3.956  5.256
Cl -5.449  3.035  2.178

2
Na -4.715  4.766  5.253
Cl -4.576  3.216  1.817

2
Na -4.492  6.080  4.806
Cl -2.572  3.693  1.926

2
Na -4.038  6.331  4.091
Cl -2.784  2.978  2.701

2
Na -4.405  5.796  5.026
Cl -2.625  4.714  3.253

2
Na -2.780  4.888  4.971
Cl -1.663  4.353  5.186

2
Na -3.004  5.389  5.379
Cl -1.242  5.396  4.773

2
Na -1.408  5.599  4.537
Cl -1.206  4.919  5.987

2
Na -1.258  6.079  3.887
Cl -1.353  4.028  3.916

2
Na -0.694  7.022  4.119
Cl -1.994  5.595  4.124

2
Na -1.060  6.115  3.624
Cl -2.370  5.397  3.469

2
Na -1.828  5.339  2.989
Cl -2.880  4.776  3.691

2
Na -2.136  6.010  2.032
Cl -3.474  4.548  3.165

2
Na -1.248  5.501  2.940
Cl -3.276  5.895  4.066

2
Na -1.194  5.425  3.924
Cl -3.808  4.831  3.991

2
Na  0.010  4.595  3.918
Cl -3.850  4.739  5.636

2
Na -0.127  3.590  3.954
Cl -2.847  5.007  4.393

2
Na -0.125  4.109  3.925
Cl -1.722  4.262  2.394

2
Na  0.191  4.908  4.367
Cl -2.224  3.341  0.463

2
Na  0.932  4.083  4.027
Cl -2.185  3.321  0.764

2
Na -0.080  4.876  5.009
Cl -1.897  2.968  2.785

2
Na -0.678  2.841  4.098
Cl -1.509  3.798  2.206

2
Na -3.263  2.731  3.498
Cl -2.772  4.304  2.455

2
Na -4.644  4.045  4.086
Cl -3.075  4.318  3.753

2
Na -4.039  2.444  2.443
Cl -3.208  3.777  4.185

2
Na -4.091  1.302  1.755
Cl -3.218  2.253  5.105

2
Na -4.486  1.434  2.436
Cl -4.600  2.850  4.988

2
Na -3.673  1.603  4.823
Cl -4.153  1.011  6.187

2
Na -3.438  0.188  6.094
Cl -4.092  1.440  4.712

2
Na -3.995 -0.488  4.542
Cl -6.125  2.799  5.076

2
Na -5.559 -1.086  4.236
Cl -6.132  2.388  4.727

2
Na -4.854 -2.007  4.094
Cl -5.189  2.152  5.473

2
Na -4.248 -1.856  5.409
Cl -4.210  0.576  6.943

2
Na -3.919 -2.640  5.273
Cl -4.790 -0.017  7.760

2
Na -4.087 -1.747  5.035
Cl -4.292 -0.309  7.298

2
Na -3.891  0.573  5.715
Cl -4.296  0.129  8.087

2
Na -2.976  0.970  5.745
Cl -4.309  0.677  6.922

2
Na -4.171  0.904  7.896
Cl -4.142  1.493  6.466

2
Na -4.818  1.951  9.281
Cl -6.094  1.470  6.591

2
Na -6.073  1.824  8.334
Cl -5.679  1.461  6.115

2
Na -4.768  1.434  6.611
Cl -4.757  0.727  4.866

2
Na -4.827  1.749  6.259
Cl -4.873 -0.338  5.646

2
Na -4.506  2.888  5.557
Cl -4.417  0.587  5.077

2
Na -4.637  3.296  6.303
Cl -5.921  0.769  5.189

2
Na -6.965  2.590  7.602
Cl -6.133  1.587  4.952

2
Na -7.514  2.515  7.049
Cl -5.805  2.550  5.842

2
Na -7.884  2.334  6.426
Cl -5.907  1.602  7.195

2
Na -7.898  2.116  6.790
Cl -6.560  1.874  5.882

2
Na -8.436  0.789  5.969
Cl -8.048  1.864  6.180

2
Na -7.476  1.048  4.692
Cl -8.238  1.119  6.549

2
Na -6.458  1.117  5.094
Cl -7.515  0.223  7.403

2
Na -6.706  0.858  5.229
Cl -7.022 -2.167  8.024

2
Na -6.453 -1.024  4.754
Cl -6.740 -0.935  8.380

2
Na -6.652  0.392  4.912
Cl -6.644 -1.332  7.164

2
Na -6.684  2.336  5.661
Cl -6.797  0.075  7.688

2
Na -8.109  2.457  5.011
Cl -7.655  1.408  7.093

2
Na -8.192  2.246  5.111
Cl -8.271  2.184  8.051

2
Na -8.304  0.678  5.143
Cl -8.392  0.890  8.040

2
Na -8.613 -1.146  4.830
Cl -9.518  1.456  5.750

2
Na -8.243 -1.550  5.088
Cl -9.288  1.768  5.522

2
Na -5.591 -0.988  4.853
Cl -8.966  1.308  5.208

2
Na -5.717 -0.260  3.371
Cl -8.992  1.403  3.386

2
Na -5.613  0.856  3.858
Cl -9.767  1.463  2.775

2
Na -5.006  0.997  5.498
Cl -9.576  1.461  3.441

2
Na -4.853  1.699  5.466
Cl -9.012  1.990  4.400

2
Na -4.260  1.839  4.156
Cl -7.947  2.374  3.751

2
Na -4.811  0.484  3.860
Cl -7.123  2.180  3.597

2
Na -5.860  0.768  1.951
Cl -7.238  1.674  3.732

2
Na -5.946 -0.292  2.577
Cl -6.400  0.805  4.250

2
Na -6.227 -0.624  2.447
Cl -6.155  0.808  1.641

2
Na -6.107 -0.406  2.860
Cl -7.314 -0.015  2.416

2
Na -6.323 -0.260  5.808
Cl -6.744  0.778  3.676

2
Na -7.128 -0.931  6.102
Cl -8.106  0.042  4.395

2
Na -7.178 -1.277  6.766
Cl -8.834 -0.555  5.502

2
Na -7.858 -2.688  6.627
Cl -8.462 -1.285  5.560

2
Na -8.016 -3.982  6.161
Cl -10.001 -2.518  7.278

2
Na -7.915 -3.223  5.663
Cl -9.731 -2.062  7.595

2
Na -8.372 -3.392  5.119
Cl -9.203 -1.852  7.762

2
Na -6.308 -3.229  6.694
Cl -7.712 -1.572  6.351

2
Na -6.684 -3.887  5.612
Cl -6.802 -0.564  6.587

2
Na -7.897 -3.931  4.639
Cl -7.807 -1.090  5.817

2
Na -8.040 -4.208  3.559
Cl -6.697 -1.471  5.643

2
Na -7.413 -2.397  6.621
Cl -8.016 -2.357  5.876

2
Na -8.357 -3.383  6.913
Cl -7.760 -2.650  5.929

2
Na -8.740 -3.631  9.258
Cl -8.074 -2.480  6.745

2
Na -9.056 -2.942  9.543
Cl -6.707 -3.288  7.122

2
Na -8.598 -3.412 -9.706
Cl -6.522 -1.813 -12.362

2
Na -7.934 -4.316  9.234
Cl -5.558 -3.693  8.099

2
Na -6.994 -3.798  8.552
Cl -5.391 -3.033  7.056

2
Na -6.497 -2.747  6.899
Cl -5.237 -4.976  6.720

2
Na -5.210 -3.843  7.480
Cl -3.751 -3.722  6.528

2
Na -4.785 -3.286  7.757
Cl -1.862 -4.354  8.868

2
Na -5.620 -2.790  7.470
Cl -2.508 -3.225  8.894

2
Na -3.886 -4.061  6.913
Cl -1.810 -3.623  8.971

2
Na -4.003 -3.791  7.359
Cl -1.578 -2.835  9.304

2
Na -2.566 -3.442  6.191
Cl -1.854 -3.319  9.812

2
Na -2.437 -3.894  6.032
Cl -2.759 -2.828  9.566

2
Na -2.291 -5.115  6.853
Cl -2.013 -2.996  9.125

2
Na -1.997 -3.643  7.620
Cl -2.131 -1.861  9.398

2
Na -3.366 -3.486  6.560
Cl -1.744 -2.043  9.283

2
Na -3.365 -2.652  7.112
Cl -1.415 -1.817  9.419

2
Na -3.231 -1.877  7.145
Cl -1.383 -2.110 10.130

2
Na -2.385 -0.816  7.967
Cl -1.519 -1.280  8.499

2
Na -2.872 -1.880  7.525
Cl -1.783 -1.462  8.088

2
Na -1.943 -2.981  7.640
Cl -1.215 -2.669  9.136

2
Na -2.730 -3.212  8.713
Cl -1.775 -1.885  7.111

2
Na -4.174 -3.335  7.865
Cl -1.003 -3.369  6.708

2
Na -3.676 -4.091  7.945
Cl -0.493 -3.549  7.082

2
Na -3.362 -3.092  7.543
Cl -0.728 -3.733  6.950

2
Na -2.860 -2.790  6.822
Cl -1.178 -3.848  7.006

2
Na -1.885 -3.302  8.010
Cl -0.496 -5.210  7.451

2
Na -1.645 -3.850  7.847
Cl -0.037 -6.082  7.823

2
Na -2.244 -5.461  6.466
Cl -0.630 -6.154  6.432

2
Na -3.098 -6.325  5.215
Cl -2.386 -5.293  6.030

2
Na -2.525 -5.632  5.764
Cl -2.612 -5.610  4.251

2
Na -1.986 -5.735  7.478
Cl -1.952 -6.979  4.720

2
Na -1.674 -6.641  6.010
Cl -0.868 -8.020  4.789

2
Na -1.866 -6.200  5.222
Cl -0.226 -5.913  4.117

2
Na -0.874 -4.813  4.038
Cl  0.068 -5.867  5.305

2
Na -1.583 -5.392  3.853
Cl -1.366 -5.094  3.323

2
Na -1.623 -4.273  4.811
Cl -1.356 -4.445  3.765

2
Na -0.911 -4.019  4.668
Cl -0.581 -3.409  4.091

2
Na  0.042 -4.490  2.702
Cl -2.045 -2.486  3.580

2
Na -0.390 -3.651  1.073
Cl -2.099 -1.992  3.377

2
Na -1.447 -3.496  1.958
Cl -3.362 -3.015  3.147

2
Na -1.461 -2.210  1.956
Cl -2.162 -4.780  2.840

2
Na -1.151 -0.987  1.582
Cl -1.136 -3.460  3.380

2
Na -2.518 -1.503  3.756
Cl -0.977 -2.696  2.646

2
Na -2.882 -2.376  4.184
Cl -1.051 -1.754  1.771

2
Na -1.549 -2.490  4.846
Cl -2.744 -1.646  0.997

2
Na -2.652 -1.974  4.703
Cl -1.348 -2.829  2.183

2
Na -3.630 -1.810  4.789
Cl -1.635 -2.714  3.675

2
Na -2.288 -1.710  5.102
Cl -1.975 -3.406  4.538

2
Na -3.389 -2.885  5.737
Cl -2.729 -2.685  3.398

2
Na -3.778 -4.112  5.568
Cl -1.705 -2.978  5.450

2
Na -4.672 -3.443  7.335
Cl -1.897 -2.174  7.070

2
Na -4.680 -3.294  7.080
Cl -3.205 -1.835  7.726

2
Na -4.876 -3.597  8.700
Cl -1.696 -2.232  8.102

2
Na -5.428 -3.487  9.196
Cl -2.643 -3.583  8.586

2
Na -4.919 -3.700  8.481
Cl -1.877 -3.521  9.156

2
Na -5.006 -4.320  8.414
Cl -3.961 -1.775  8.671

2
Na -5.863 -3.203  9.687
Cl -4.503 -2.627  7.836

2
Na -4.702 -3.823 -9.919
Cl -5.596 -3.029 -13.017

2
Na -5.162 -4.177  9.259
Cl -6.360 -4.453  6.406

2
Na -4.785 -4.702  8.214
Cl -6.155 -6.384  5.503

2
Na -5.923 -5.106  8.346
Cl -6.767 -7.044  4.688

2
Na -6.536 -5.259  7.925
Cl -6.792 -6.443  4.354

2
Na -6.966 -4.909  7.559
Cl -7.426 -6.431  4.380

2
Na -7.181 -5.886  7.033
Cl -5.906 -6.815  5.256

2
Na -7.894 -6.571  6.502
Cl -4.503 -6.988  6.972

2
Na -8.165 -6.407  4.504
Cl -5.524 -7.522  6.451

2
Na -8.746 -7.445  4.808
Cl -4.481 -7.459  5.890

2
Na -8.205 -7.317  5.529
Cl -4.176 -8.002  5.760

2
Na -7.220 -6.928  6.510
Cl -3.685 -7.310  6.252

2
Na -7.299 -6.416  6.271
Cl -3.499 -6.521  5.325

2
Na -8.406 -6.041  6.029
Cl -3.478 -5.419  5.290

2
Na -7.791 -7.097  5.809
Cl -4.456 -5.468  4.780

2
Na -7.415 -6.219  7.253
Cl -3.654 -5.125  5.840

2
Na -5.313 -4.855  6.863
Cl -3.972 -4.289  5.245

2
Na -5.032 -4.486  5.645
Cl -3.595 -2.641  5.166

2
Na -5.868 -5.432  4.124
Cl -4.405 -2.867  6.519

2
Na -5.796 -5.065  4.909
Cl -4.309 -4.093  7.528

2
Na -4.761 -5.977  4.722
Cl -4.318 -5.797  8.128

2
Na -4.700 -4.822  5.069
Cl -4.602 -5.084  7.471

2
Na -4.218 -5.750  5.179
Cl -5.810 -4.637  7.329

2
Na -5.153 -7.042  5.025
Cl -5.232 -5.037  7.046

2
Na -5.208 -7.405  6.148
Cl -4.811 -5.606  6.459

2
Na -4.668 -5.978  5.721
Cl -4.322 -4.041  6.428

2
Na -3.892 -6.793  5.356
Cl -3.422 -4.871  7.169

2
Na -4.053 -7.143  5.483
Cl -4.054 -5.474  7.543

2
Na -3.746 -6.379  4.131
Cl -4.129 -6.424  6.623

2
Na -4.049 -8.300  3.991
Cl -3.279 -6.855  6.311

2
Na -3.506 -7.441  3.173
Cl -1.854 -6.619  4.397

2
Na -1.566 -8.429  1.907
Cl -2.772 -6.591  4.586

2
Na -2.238 -8.716  2.374
Cl -0.922 -6.374  3.781

2
Na -0.580 -9.213  2.429
Cl  0.656 -6.472  4.484

2
Na -1.459 -8.554  2.059
Cl  0.449 -7.148  5.274

2
Na -1.098 -7.595  2.693
Cl -1.118 -8.251  5.395

2
Na  0.216 -7.237  3.010
Cl -0.920 -7.979  6.063

2
Na -0.136 -7.861  2.882
Cl  0.192 -9.716  5.446

2
Na  0.391 -6.568  4.609
Cl  0.115 -8.866  6.209

2
Na -0.824 -7.903  5.248
Cl -0.822 -9.041  6.929

2
Na -1.776 -8.171  5.402
Cl -1.446 -8.498  6.452

2
Na -2.552  9.922  7.180
Cl -1.795 10.852  7.592

2
Na -3.623 -9.018  5.584
Cl -0.701 -9.785  8.296

2
Na -2.804 -9.029  7.161
Cl -2.149 -10.143  8.153

2
Na -3.251 -8.791  7.016
Cl -2.586 -10.398  8.568

2
Na -4.921 -9.581  8.731
Cl -2.413 -10.982  7.398

2
Na -4.051 -9.370  7.815
Cl -1.660 -11.232  7.769

2
Na -3.390 -8.747 -9.937
Cl -2.134 -10.914 -10.591

2
Na -4.625 -9.448 -8.809
Cl -2.331 -10.482 -10.800

2
Na -5.241  9.400  9.788
Cl -1.996  7.443  9.882

2
Na -3.380  9.661  8.492
Cl -1.621  8.704 10.223

2
Na -3.042 -9.386  8.362
Cl -2.042 -11.591  9.787

2
Na -4.248  9.803  9.348
Cl -3.797  8.942  8.943

2
Na -2.936 -8.796  9.692
Cl -3.500 -10.640 10.556

2
Na -3.001  9.967  9.031
Cl -3.826  9.286  8.849

2
Na -3.258  8.307  7.560
Cl -3.011  7.895  7.797

2
Na -4.909  6.748  7.027
Cl -2.994  7.274  7.124

2
Na -4.115  5.956  6.892
Cl -2.259  6.939  6.981

2
Na -3.064  6.551  6.107
Cl -1.701  5.289  6.303

2
Na -2.221  7.291  5.211
Cl -1.986  5.549  5.935

2
Na -1.126  6.143  5.757
Cl -2.990  4.883  5.512

2
Na -0.260  4.904  7.047
Cl -2.944  5.830  5.526

2
Na -0.556  4.765  6.612
Cl -3.047  4.400  6.341

2
Na -1.032  5.872  6.162
Cl -3.137  3.599  6.844

2
Na -1.328  3.892  6.101
Cl -3.144  4.176  7.040

2
Na  0.085  3.794  7.355
Cl -1.761  5.724  7.616

2
Na -1.190  4.105  8.916
Cl -2.324  6.124  8.690

2
Na -0.830  4.523  8.063
Cl -1.560  5.593  8.560

2
Na -2.023  5.541  7.738
Cl -0.577  4.806  9.426

2
Na -2.677  5.162  8.296
Cl -1.371  5.879  8.813

2
Na -2.611  4.629  8.890
Cl -1.354  5.914  9.519

2
Na -1.581  4.001  9.803
Cl -0.512  4.062  9.008

2
Na -1.037  5.304  9.993
Cl  0.319  4.036  8.152

2
Na  0.815  4.786  9.161
Cl  0.429  4.331  9.014

2
Na -0.174  3.151 -9.938
Cl  1.826  3.367 -12.429

2
Na  0.575  5.076 -8.934
Cl  2.063  4.036 -12.191

2
Na  0.972  5.867 -9.573
Cl  2.268  3.975 -11.108

2
Na -1.033  5.092  8.947
Cl  1.478  3.737  9.152

2
Na -1.371  4.386  9.059
Cl  0.205  4.519  8.099

2
Na -2.163  3.379  7.578
Cl  0.678  4.875  7.662

2
Na -2.358  3.828  7.531
Cl  0.716  3.621  7.088

2
Na -3.617  3.223  6.123
Cl -0.046  4.316  7.692

2
Na -3.028  3.950  5.125
Cl -0.862  3.497  7.608

2
Na -2.973  4.133  6.609
Cl -0.330  4.300  7.081

2
Na -2.812  3.635  6.024
Cl -0.622  4.359  6.225

2
Na -2.254  2.369  6.525
Cl  0.286  4.418  6.079

2
Na -1.382  2.817  6.831
Cl -0.024  3.761  6.945

2
Na -0.598  3.226  6.458
Cl -0.300  4.371  8.123

2
Na -1.258  5.011  6.737
Cl -1.991  4.803  8.160

2
Na -1.086  4.336  5.322
Cl -2.045  6.078  6.266

2
Na -0.773  3.310  5.987
Cl -1.386  4.887  6.792

2
Na -1.353  2.878  6.341
Cl -0.228  5.104  6.273

2
Na  0.057  2.173  6.241
Cl  0.201  5.502  7.334

2
Na -0.045  1.864  7.021
Cl -0.277  5.136  6.335

2
Na  0.791  1.601  6.374
Cl -0.647  3.198  6.465

2
Na  0.755  1.698  6.250
Cl  0.354  3.676  6.950

2
Na  0.274  0.580  4.889
Cl -0.915  3.316  6.372

2
Na  0.561  1.201  5.090
Cl -1.293  4.126  6.589

2
Na  0.955  1.716  4.824
Cl -0.038  2.395  6.783

2
Na  0.791  0.611  5.557
Cl  1.141  2.936  7.542

2
Na  1.751  0.549  5.924
Cl  0.145  1.145  8.315

2
Na  1.420  1.612  6.310
Cl -0.319  0.597  7.235

2
Na  1.058  1.335  6.382
Cl -1.869 -0.022  7.887

2
Na  0.987  1.738  6.104
Cl -1.265  0.644  7.211

2
Na  0.300  1.521  7.518
Cl -0.980  2.919  6.677

2
Na  0.768  0.171  7.455
Cl  0.345  2.826  5.033

2
Na -0.495  0.612  6.062
Cl -0.219  2.244  5.379

2
Na -0.818  0.070  4.899
Cl  0.906  2.345  5.047

2
Na -0.074  0.052  4.838
Cl  1.305  3.100  4.442

2
Na  0.101  1.003  5.593
Cl  0.778  3.596  4.577

2
Na  0.749  0.502  6.088
Cl  0.917  3.253  5.187

2
Na  0.123 -0.282  7.112
Cl  1.196  1.907  4.474

2
Na  0.066 -1.742  5.234
Cl  1.910  0.642  4.133

2
Na  0.301 -2.212  5.591
Cl  2.125 -0.401  4.318

2
Na  0.914 -1.497  5.419
Cl  2.080  0.569  5.350

2
Na  0.924 -2.397  6.143
Cl  0.951 -0.733  4.294

2
Na -0.187 -1.754  6.944
Cl  0.726 -1.152  3.823

2
Na -0.489 -2.254  8.126
Cl  0.674 -1.489  4.542

2
Na -1.166 -2.144  8.535
Cl  1.085 -2.132  4.213

2
Na -1.341 -0.986  7.824
Cl  1.367 -2.383  4.679

2
Na -0.739 -2.225  8.359
Cl -0.702 -2.493  4.007

2
Na -0.299 -3.007  6.181
Cl -2.218 -2.966  5.541

2
Na -1.733 -3.209  7.751
Cl -2.760 -3.106  5.536

2
Na -1.587 -2.433  6.849
Cl -2.274 -1.359  5.267

2
Na -2.496 -1.942  7.530
Cl -2.348 -0.883  4.940

2
Na -2.470 -1.884  6.485
Cl -3.226 -0.501  4.445

2
Na -1.996 -2.531  6.693
Cl -2.486 -0.367  3.934

2
Na -0.969 -1.405  6.878
Cl -2.867 -2.169  5.914

2
Na -1.094 -1.346  6.329
Cl -2.768 -1.114  5.153

2
Na -0.270 -1.581  6.012
Cl -1.444 -0.908  3.965

2
Na -0.057 -0.784  6.489
Cl  0.248 -1.248  4.097

2
Na -0.337  0.655  3.374
Cl  0.777 -1.902  4.478

2
Na -0.746  0.790  3.524
Cl  0.663 -0.964  4.745

2
Na -0.074  1.290  4.809
Cl  1.466 -1.516  3.729

2
Na  1.711  0.443  5.864
Cl  0.105  0.849  3.252

2
Na  3.211  1.661  5.409
Cl  0.939  1.889  3.173

2
Na  3.284  0.567  4.264
Cl  2.953  2.997  3.782

2
Na  2.921  0.742  3.634
Cl  2.332  1.707  3.487

2
Na  2.785  0.514  2.620
Cl  0.777  2.865  2.716

2
Na  1.353  0.942  1.657
Cl  0.347  0.607  3.114

2
Na  1.333  1.652  2.294
Cl  1.237  2.406  3.707

2
Na  1.130  2.336  0.148
Cl  1.665  2.944  3.405

2
Na  1.337  1.146  2.771
Cl  1.942  3.406  4.169

2
Na  2.152  0.355  1.867
Cl  1.940  0.563  4.683

2
Na  1.560  0.632  1.449
Cl  1.283  0.742  3.612

2
Na  2.403  0.661  1.971
Cl  0.690  1.404  4.286

2
Na  2.117  1.226  1.732
Cl  0.233 -0.540  4.260

2
Na  0.528  0.128  2.197
Cl  0.985  0.016  6.253

2
Na  0.557 -0.233  3.219
Cl -0.998  0.731  5.600

2
Na  0.993 -0.398  2.707
Cl  0.356  1.504  4.257

2
Na  1.072 -1.480  3.078
Cl -0.257  1.665  4.634

2
Na -0.257 -1.266  4.136
Cl  0.872  2.320  3.692

2
Na -0.467 -1.053  3.984
Cl  1.228  1.845  3.431

2
Na -1.031  0.543  2.705
Cl  1.425  2.232  2.272

2
Na -0.899  0.977  1.389
Cl  2.574  2.880  2.516

2
Na -0.334  1.148  1.175
Cl  2.269  3.516  1.364

2
Na  0.287  1.164  1.353
Cl  2.151  3.943  0.874

2
Na  1.382  1.743  0.980
Cl  1.868  4.470  0.147

2
Na  0.227  0.535  0.944
Cl  1.494  2.736 -0.545

2
Na  0.688 -0.614  1.752
Cl  0.491  2.151  1.030

2
Na  0.297 -0.264  1.650
Cl -0.266  0.078  2.267

2
Na  2.006 -0.323  2.018
Cl -1.529 -0.067  2.379

2
Na  2.092 -1.290  4.349
Cl -1.434 -0.811  2.362

2
Na  1.123 -0.630  3.903
Cl -0.248 -1.086  1.566

2
Na  0.855 -1.788  3.993
Cl -0.344 -1.440  1.395

2
Na  0.297 -2.471  4.781
Cl -1.731 -2.232  1.355

2
Na  1.669 -2.439  3.279
Cl -1.440 -3.077  1.797

2
Na  1.965 -1.467  3.424
Cl -0.825 -3.210  1.181

2
Na  0.830 -2.135  3.807
Cl  0.325 -3.690  2.197

2
Na -0.034 -2.290  4.157
Cl  0.067 -3.841  0.999

2
Na  1.116 -1.382  3.620
Cl  0.599 -3.540  1.146

2
Na  1.229 -2.122  3.666
Cl  0.828 -4.666  2.917

2
Na  1.504 -1.981  3.593
Cl  0.795 -3.534  2.918

2
Na  2.615 -3.080  2.774
Cl  0.224 -3.095  2.940

2
Na  1.149 -2.404  1.588
Cl  0.290 -3.452  2.770

2
Na  0.793 -1.565  1.898
Cl -0.230 -2.710  1.716

2
Na  1.230  0.114  3.557
Cl  1.296 -3.260  1.399

2
Na  2.030  0.106  1.887
Cl  1.690 -2.229  0.079

2
Na  1.778 -1.341  4.101
Cl  2.968 -1.832  0.678

2
Na  1.237 -0.988  4.486
Cl  2.120 -1.208  1.490

2
Na -0.699 -0.789  3.815
Cl  1.877 -2.161  0.851

2
Na -0.522 -1.416  2.606
Cl  1.324 -1.872  1.069

2
Na -0.818 -2.444  3.126
Cl  1.014 -1.022  0.361

2
Na -1.329 -2.268  2.301
Cl  0.637 -1.324  0.864

2
Na -0.654 -2.782  2.316
Cl -1.512 -0.404  0.502

2
Na -0.320 -3.604  0.909
Cl -1.661 -1.135  1.214

2
Na -1.311 -3.732  1.260
Cl -0.594 -0.317 -0.359

2
Na -1.091 -4.340  0.581
Cl -0.684 -1.719 -0.531

2
Na -1.376 -3.597  0.734
Cl -1.099 -0.700  0.907

2
Na -0.632 -2.976 -1.377
Cl -1.766  0.471  0.354

2
Na -1.564 -2.798 -1.079
Cl -1.819  0.376  0.430

2
Na -1.615 -2.687 -0.702
Cl -2.706  0.180  0.006

2
Na -1.886 -0.080 -0.724
Cl -2.489  1.629 -0.370

2
Na -2.013 -0.159 -1.345
Cl -1.595  0.837  0.047

2
Na -1.906  0.228 -1.267
Cl -1.175  2.355 -0.288

2
Na -2.065 -0.523 -2.511
Cl -1.089  2.097 -1.068

2
Na -1.521  1.141 -2.387
Cl -1.700  3.021 -0.609

2
Na -1.940  1.153 -3.854
Cl -1.806  3.408 -2.071

2
Na -3.170  1.695 -3.110
Cl -3.193  3.601 -0.930

2
Na -4.186  2.750 -3.232
Cl -2.673  3.795 -0.356

2
Na -4.367  3.195 -2.576
Cl -3.138  3.430  0.163

2
Na -5.578  3.413 -2.342
Cl -3.854  2.660 -0.748

2
Na -5.256  2.637 -3.015
Cl -3.940  3.150  0.110

2
Na -5.021  1.889 -2.601
Cl -3.812  3.041 -0.053

2
Na -5.489  1.801 -2.884
Cl -3.782  2.125  1.145

2
Na -4.517  2.697 -2.771
Cl -4.865  1.554 -0.667

2
Na -5.580  3.263 -2.113
Cl -5.277  0.660 -3.371

2
Na -4.628  2.090 -2.747
Cl -5.078 -0.878 -3.732

2
Na -4.656  2.553 -4.249
Cl -4.220 -1.113 -2.410

2
Na -4.421  2.039 -5.082
Cl -2.890 -0.903 -3.688

2
Na -4.129  0.962 -5.542
Cl -2.293 -0.600 -5.230

2
Na -1.028  2.399 -4.416
Cl -1.244 -0.166 -5.701

2
Na -2.671  1.918 -6.663
Cl -2.955  0.269 -4.757

2
Na -2.850  0.912 -8.009
Cl -2.940 -0.500 -4.995

2
Na -3.940  0.041 -8.534
Cl -3.935 -1.191 -6.016

2
Na -4.401  0.968 -8.851
Cl -4.764  0.280 -6.633

2
Na -6.033  1.271  9.618
Cl -5.418 -0.368 13.206

2
Na -6.274  0.904 -9.932
Cl -4.631  0.255 -8.145

2
Na -6.472  1.631  8.654
Cl -4.143  0.123 10.951

2
Na -7.018  0.788  7.918
Cl -4.510  0.182  9.802

2
Na -6.753 -0.328  7.845
Cl -5.370 -0.217  8.663

2
Na -6.214 -1.051  7.824
Cl -6.526  0.298  9.647

2
Na -6.519 -1.405  7.431
Cl -6.037 -0.583  9.173

2
Na -5.929  0.090  7.031
Cl -7.053 -0.625  8.395

2
Na -6.364  0.795  6.292
Cl -7.339  0.506  8.232

2
Na -7.146  0.278  7.415
Cl -9.754  0.722  7.187

2
Na -8.672  1.152  7.535
Cl -9.463  1.088  6.067

2
Na -8.067 -0.393  8.524
Cl -9.398 -0.107  7.220

2
Na -7.446  0.006  9.818
Cl -9.216 -1.266  8.504

2
Na -7.980 -2.605  9.625
Cl -9.761 -1.929  9.140

2
Na -8.868 -1.508  9.899
Cl -10.963 -2.433  8.003

2
Na -9.306 -2.077  9.404
Cl -10.322 -2.203  7.623

2
Na  9.725 -1.963 -9.274
Cl  9.618 -2.369 -11.479

2
Na -8.829 -1.838  8.909
Cl -10.609 -1.945  8.226

2
Na -7.110 -2.137  7.619
Cl -10.366 -0.312  7.947

2
Na -9.012 -2.426  8.443
Cl -8.688  0.377  6.894

2
Na  9.183 -3.168  8.795
Cl 11.095  0.829  6.943

2
Na  9.155 -2.276  9.171
Cl 10.597  1.345  6.876

2
Na  9.297 -1.697 -9.689
Cl  9.718  1.404 -13.558

2
Na  9.536 -1.716  8.705
Cl  9.710  1.017  6.824

2
Na  8.827 -1.374  8.692
Cl  9.852  0.368  6.733

2
Na  8.632 -0.538  8.317
Cl  9.438  1.636  7.162

2
Na  8.742 -1.678  8.820
Cl  9.189  1.182  6.860

2
Na  8.766  0.114 -9.708
Cl 10.810  0.571 -12.161

2
Na  7.869  0.798  9.718
Cl 10.466  0.936  7.844

2
Na  7.356  2.080  8.729
Cl 11.237  1.912  9.113

2
Na  8.529  1.018  9.222
Cl 12.205  2.434  9.651

2
Na  8.787  0.998  9.225
Cl 11.172  2.076  8.285

2
Na -9.929  2.826 -9.449
Cl -7.961  1.353 -10.369

2
Na  9.951  3.195 -9.051
Cl 10.402 -0.347 -10.454

2
Na -9.489  3.952 -8.877
Cl -10.837  0.051 -11.582

2
Na -8.469  3.836 -9.283
Cl -11.528 -0.150 -11.011

2
Na -7.268  2.658 -8.852
Cl -10.452 -0.749 -10.427

2
Na -8.426  2.929 -8.273
Cl -9.675 -0.189 -11.045

2
Na -8.280  1.819 -9.160
Cl -8.745 -0.466 -10.287

2
Na -7.650  2.524 -9.768
Cl -8.363 -1.288 -10.354

2
Na -7.897  3.948  9.958
Cl -7.567 -1.267  9.550

2
Na -7.695  2.830  9.907
Cl -8.457 -1.187  8.185

2
Na -7.104  1.907  9.634
Cl -7.900 -1.676  9.302

2
Na -7.097  2.029  9.364
Cl -6.332 -1.841  9.465

2
Na -4.293  1.011  8.946
Cl -5.520 -0.941  9.744

2
Na -5.767  1.637  9.181
Cl -5.033  1.122 10.459

2
Na -7.087  2.800  9.604
Cl -4.985  1.007 10.989

2
Na -9.321  2.766  8.027
Cl -5.809  0.284  9.681

2
Na -8.447  2.648  6.813
Cl -6.241 -0.369  8.055

2
Na -9.185  2.396  7.435
Cl -6.729  0.550  8.217

2
Na -9.203 -0.056  8.039
Cl -7.759  0.701  7.152

2
Na  9.770  1.217  8.087
Cl 12.557  1.274  7.736

2
Na -9.025 -1.000  9.358
Cl -7.396  1.166  8.088

2
Na -8.098 -0.705  7.554
Cl -6.905  1.985  8.398

2
Na -8.779  0.379  9.643
Cl -7.040  0.913  8.676

2
Na -7.291  0.388 -9.757
Cl -7.205  1.914 -12.501

2
Na -8.710 -0.425 -9.478
Cl -7.374  1.527 -11.320

2
Na -7.585  0.333  9.412
Cl -7.940  1.259  7.572

2
Na -6.058  0.868  9.856
Cl -6.686  1.093  7.044

2
Na -5.563  1.131  9.563
Cl -7.662  0.525  6.482

2
Na -6.928  1.162  9.001
Cl -7.151 -0.668  7.359

2
Na -6.624  0.878  8.085
Cl -7.133 -1.010  5.881

2
Na -8.357  1.504  7.672
Cl -7.526 -1.016  5.926

2
Na -8.886  1.319  6.779
Cl -7.278 -0.202  5.411

2
Na  8.547  1.520  6.156
Cl 11.363 -0.204  6.329

2
Na  8.737  1.861  6.925
Cl 11.194  0.513  5.907

2
Na  8.162 -0.234  8.100
Cl 11.495 -0.543  7.330

2
Na  9.233  0.116  8.178
Cl 10.990  0.504  6.943

2
Na  9.012  1.538  8.925
Cl 10.591  1.264  5.824

2
Na  8.308  0.532  8.068
Cl 10.024  0.365  5.329

2
Na  8.936  1.128  8.627
Cl 11.663  1.090  7.084

2
Na -9.692  2.325 -9.997
Cl -7.723  2.017 -13.321

2
Na -8.324  1.182  8.829
Cl -8.010  1.586  7.264

2
Na -9.043  0.281  8.301
Cl -7.357  0.224  8.500

2
Na -8.503  0.555  8.064
Cl -7.029  1.504  7.684

2
Na -8.639 -0.293  7.004
Cl -5.482  0.843  8.526

2
Na -7.665 -0.195  8.466
Cl -6.818  0.411  8.081

2
Na -6.941  0.663  9.279
Cl -7.005  0.569  7.409

2
Na -7.747  1.451  7.923
Cl -6.370  0.555  6.663

2
Na -5.524  2.908  6.062
Cl -6.985 -0.320  5.515

2
Na -5.534  2.154  7.399
Cl -7.168  0.301  5.300

2
Na -5.380  1.912  7.588
Cl -6.898 -1.011  5.651

2
Na -4.891  1.236  8.387
Cl -6.555  0.057  4.564

2
Na -5.324  0.889  8.787
Cl -7.218 -0.114  5.550

2
Na -3.271  0.598  9.385
Cl -7.254 -0.226  5.270

2
Na -4.595  0.233  8.979
Cl -5.954  0.031  5.003

2
Na -3.986  0.056  8.329
Cl -6.295 -0.231  6.110

2
Na -3.133 -0.056  8.131
Cl -4.451 -0.876  5.062

2
Na -4.750  0.081  8.122
Cl -3.683 -1.559  6.168

2
Na -4.433  1.029  8.119
Cl -3.659 -1.337  5.136

2
Na -4.183  0.346  7.964
Cl -3.311  0.133  5.142

2
Na -3.854 -0.599  7.359
Cl -4.142 -1.395  5.903

2
Na -4.221 -1.658  6.956
Cl -5.655 -1.641  6.378

2
Na -2.884 -3.155  7.162
Cl -5.715 -2.573  8.204

2
Na -4.150 -5.070  7.459
Cl -6.495 -4.004  8.847

2
Na -5.567 -5.575  7.207
Cl -6.307 -3.051  9.745

2
Na -7.670 -5.228  7.410
Cl -5.802 -4.010  9.331

2
Na -7.269 -4.575  7.152
Cl -6.370 -3.311  7.953

2
Na -6.484 -3.971  7.770
Cl -5.134 -4.357  9.668

2
Na -5.730 -5.423  7.311
Cl -7.111 -3.147  8.425

2
Na -6.407 -5.392  7.103
Cl -8.162 -3.178  8.621

2
Na -6.711 -7.193  6.955
Cl -8.159 -3.756  7.567

2
Na -6.150 -8.048  6.379
Cl -6.981 -4.828  6.779

2
Na -5.189 -6.875  5.332
Cl -6.269 -5.007  5.852

2
Na -4.078 -6.242  5.042
Cl -4.494 -6.070  7.329

2
Na -4.326 -6.009  6.045
Cl -3.909 -5.098  6.494

2
Na -4.805 -6.065  6.776
Cl -4.440 -4.711  6.163

2
Na -4.098 -5.482  6.582
Cl -5.066 -3.924  5.861

2
Na -3.544 -5.237  8.095
Cl -4.239 -3.883  7.292

2
Na -2.694 -6.017  9.014
Cl -3.986 -3.701  7.385

2
Na -2.956 -5.827  8.070
Cl -5.013 -2.941  6.419

2
Na -3.510 -5.267  7.096
Cl -6.190 -4.132  7.311

2
Na -3.705 -5.606  7.476
Cl -6.212 -5.221  6.956

2
Na -4.043 -6.746  7.972
Cl -5.649 -5.427  6.455

2
Na -3.617 -6.399  6.953
Cl -4.305 -5.276  6.766

2
Na -5.089 -7.105  5.776
Cl -3.132 -5.899  5.744

2
Na -4.722 -7.117  6.478
Cl -4.851 -6.336  5.742

2
Na -4.402 -5.822  6.513
Cl -5.992 -6.884  5.540

2
Na -3.845 -6.732  5.977
Cl -5.554 -6.953  5.411

2
Na -3.057 -6.051  6.631
Cl -6.333 -8.765  5.275

2
Na -5.116 -5.435  7.310
Cl -5.558 -7.664  4.074

2
Na -4.255 -4.834  6.544
Cl -5.419 -7.789  4.862

2
Na -4.656 -4.593  6.376
Cl -5.752 -7.671  5.221

2
Na -4.492 -4.794  4.525
Cl -5.773 -8.326  4.351

2
Na -7.077 -5.954  3.193
Cl -6.014 -9.275  4.103

2
Na -6.303 -4.862  3.107
Cl -6.001 -7.587  3.608

2
Na -6.683 -5.032  3.293
Cl -6.263 -7.115  4.994

2
Na -5.832 -5.007  2.335
Cl -5.321 -6.883  5.296

2
Na -5.236 -5.258  2.575
Cl -5.831 -6.687  4.341

2
Na -5.398 -5.115  2.510
Cl -6.801 -6.631  4.731

2
Na -4.017 -5.010  2.244
Cl -6.583 -7.073  4.644

2
Na -3.898 -5.874  0.774
Cl -6.825 -6.711  3.780

2
Na -4.648 -6.103  1.595
Cl -7.194 -6.685  2.859

2
Na -5.071 -5.781  1.651
Cl -7.500 -6.732  2.871

2
Na -5.686 -7.216  1.944
Cl -8.107 -6.612  2.640

2
Na -5.673 -6.308  0.398
Cl -8.069 -6.194  1.384

2
Na -4.052 -5.655  0.683
Cl -8.694 -6.343  1.179

2
Na -5.193 -4.247  1.512
Cl -8.536 -5.926 -0.415

2
Na -5.568 -4.115  1.661
Cl -8.783 -5.890 -0.083

2
Na -4.863 -4.159  0.376
Cl -8.081 -5.184 -1.851

2
Na -6.025 -4.507 -1.385
Cl -8.622 -4.935 -0.874

2
Na -6.080 -4.812 -1.878
Cl -7.437 -2.611 -0.713

2
Na -6.109 -4.985 -3.130
Cl -8.748 -3.519  0.082

2
Na -5.813 -4.735 -1.820
Cl -8.749 -4.757 -0.065

2
Na -6.795 -4.247 -2.019
Cl -8.646 -4.372 -0.656

2
Na -7.730 -5.173 -2.535
Cl -6.699 -4.121 -0.708

2
Na -8.362 -5.182 -2.073
Cl -6.555 -3.605 -0.533

2
Na -8.382 -3.783 -1.126
Cl -6.534 -3.060 -2.029

2
Na -7.962 -4.628 -0.588
Cl -5.801 -3.806 -2.177

2
Na -6.699 -3.583  0.432
Cl -7.557 -4.021 -1.642

2
Na -6.412 -3.172 -0.405
Cl -8.691 -3.789 -1.656

2
Na -6.063 -4.154 -1.467
Cl -8.263 -2.614 -1.251

2
Na -5.520 -3.685 -1.727
Cl -7.486 -3.500 -2.022

2
Na -5.288 -2.587 -2.068
Cl -6.641 -2.452 -1.671

2
Na -5.161 -1.732 -2.388
Cl -7.350 -2.248 -3.161

2
Na -4.979 -1.530 -2.639
Cl -7.256 -2.416 -3.074

2
Na -5.274 -0.893 -1.868
Cl -7.001 -2.684 -3.835

2
Na -4.997  0.192 -3.436
Cl -5.825 -1.637 -3.681

2
Na -4.303  0.471 -3.242
Cl -5.706 -0.486 -3.707

2
Na -4.469  1.632 -3.006
Cl -4.845  1.889 -3.363

2
Na -5.248  0.915 -3.377
Cl -3.803  2.654 -3.622

2
Na -4.699  2.231 -3.215
Cl -5.148  3.379 -2.050

2
Na -4.266  2.139 -5.130
Cl -4.385  3.228 -2.419

2
Na -3.666  3.251 -5.725
Cl -4.893  2.083 -3.261

2
Na -3.996  3.446 -5.539
Cl -5.792  2.080 -4.143

2
Na -3.280  4.216 -4.659
Cl -3.407  2.404 -3.636

2
Na -3.441  4.345 -3.980
Cl -3.921  3.520 -2.322

2
Na -4.812  2.852 -3.440
Cl -2.780  3.398 -2.666

2
Na -4.456  2.357 -2.676
Cl -3.467  3.418 -1.662

2
Na -3.116  3.469 -2.487
Cl -4.318  2.397 -2.279

2
Na -2.154  3.507 -2.649
Cl -3.836  2.744 -2.200

2
Na -1.836  2.127 -3.014
Cl -3.177  2.144 -2.328

2
Na -0.914  1.818 -3.726
Cl -3.913  1.419 -1.923

2
Na -2.406  2.280 -4.573
Cl -4.357  1.253 -2.544

2
Na -2.396  2.876 -4.615
Cl -4.237  0.580 -3.178

2
Na -2.682  2.952 -3.529
Cl -4.167 -0.335 -3.570

2
Na -1.619  2.263 -3.760
Cl -2.559  0.446 -4.637

2
Na -1.883  2.597 -2.778
Cl -2.200  1.673 -5.158

2
Na -2.734  2.866 -2.619
Cl -3.691  1.346 -5.473

2
Na -3.375  3.744 -3.709
Cl -3.327  2.692 -5.612

2
Na -2.972  2.838 -4.772
Cl -2.935  1.512 -6.169

2
Na -1.722  3.187 -4.393
Cl -3.358  0.792 -6.717

2
Na -0.917  2.459 -4.025
Cl -3.163  1.693 -6.708

2
Na -1.094  1.748 -5.268
Cl -0.349  1.822 -7.004

2
Na -1.316  2.447 -5.573
Cl  0.830  1.638 -7.535

2
Na -1.276  1.685 -5.717
Cl -0.255  2.232 -7.486

2
Na -0.932  2.267 -5.634
Cl -0.754  2.884 -6.355

2
Na -1.244  1.546 -4.819
Cl -0.646  3.465 -7.488

2
Na -2.469  1.433 -5.089
Cl -0.884  2.800 -7.155

2
Na -3.149  1.590 -6.545
Cl -1.153  4.175 -7.783

2
Na -3.387  1.677 -6.873
Cl -2.023  5.674 -7.848

2
Na -3.873  2.235 -6.048
Cl -2.666  3.889 -6.886

2
Na -3.194  1.931 -5.252
Cl -4.177  4.633 -8.146

2
Na -2.380  2.201 -4.879
Cl -4.073  4.609 -7.493

2
Na -2.147  2.125 -4.597
Cl -3.254  3.388 -7.842

2
Na -1.635  1.332 -4.469
Cl -2.645  3.028 -6.157

2
Na -3.074  1.001 -3.590
Cl -2.757  2.587 -4.676

2
Na -3.093 -0.999 -4.359
Cl -3.407  2.719 -4.589

2
Na -2.564 -0.815 -3.956
Cl -3.933  1.710 -3.810

2
Na -0.921 -0.629 -5.481
Cl -2.482  1.525 -3.391

2
Na -2.287 -0.175 -5.381
Cl -1.179  0.855 -2.421

2
Na -2.047 -1.971 -4.609
Cl -1.334  1.556 -2.054

2
Na -1.993 -0.808 -2.789
Cl -1.082  0.927 -2.489

2
Na -2.266 -1.096 -2.233
Cl  0.511 -0.667 -2.159

2
Na -1.091 -1.620 -3.588
Cl -0.579 -0.732 -1.127

2
Na -2.056 -2.566 -1.772
Cl -0.430 -0.816 -0.974

2
Na -1.914 -1.473 -0.448
Cl -1.712 -0.096 -0.367

2
Na -2.621 -0.834  0.438
Cl -1.278 -0.505  0.607

2
Na -3.094  0.173  0.859
Cl -0.861 -0.765  1.108

2
Na -1.898  0.293  0.537
Cl -1.448 -0.203  0.577

2
Na -1.917 -1.528 -0.784
Cl -1.840  0.011  1.678

2
Na -1.106 -1.203  0.230
Cl -3.301 -1.634  3.268

2
Na  0.168 -0.431  2.005
Cl -1.874 -2.577  1.694

2
Na -0.003 -0.604  0.443
Cl -2.353 -0.085  2.060

2
Na -0.644  0.466  0.236
Cl -2.374  1.580  1.522

2
Na -0.965  1.347 -0.517
Cl -1.907  2.038  2.002

2
Na -0.234  2.095  0.652
Cl -3.208  2.278  0.035

2
Na -0.158  2.163  0.717
Cl -2.383  2.154  0.090

2
Na -0.896  2.283  0.614
Cl -3.254  1.411 -0.030

2
Na -0.497  2.494 -0.868
Cl -3.018  2.430 -1.105

2
Na -1.557  1.842 -1.899
Cl -2.277  1.749 -3.218

2
Na -2.379  0.662 -2.059
Cl -1.359  1.518 -3.024

2
Na -3.718  0.837 -1.786
Cl -0.746  2.016 -2.241

2
Na -3.874  1.753 -2.140
Cl -1.034  1.891 -1.317

2
Na -3.956  1.522 -2.148
Cl -0.981  0.302 -2.104

2
Na -4.040  1.426 -2.331
Cl -2.387 -1.212 -1.234

2
Na -4.702  1.594 -0.803
Cl -2.779 -1.409 -1.467

2
Na -5.131  0.983 -1.167
Cl -2.927  0.003 -0.881

2
Na -4.949  2.704 -0.587
Cl -3.008  0.548 -0.288

2
Na -4.668  2.285  0.178
Cl -4.034 -0.054 -0.658

2
Na -4.649  2.459 -0.133
Cl -5.125 -0.603 -1.190

2
Na -4.617  2.524  0.556
Cl -5.154  0.935 -2.524

2
Na -4.306  3.192 -0.717
Cl -3.439  0.514 -1.896

2
Na -4.535  3.219 -1.746
Cl -4.958  1.099 -2.639

2
Na -2.845  2.373 -3.224
Cl -3.000 -0.653 -3.627

2
Na -1.740  0.970 -2.694
Cl -3.801 -0.128 -4.108

2
Na -2.777  1.259 -2.653
Cl -4.062  1.078 -2.761

2
Na -3.220  2.492 -3.805
Cl -3.206  0.571 -2.164

2
Na -2.638  1.656 -3.148
Cl -5.000  0.418 -2.786

2
Na -3.254  4.341 -3.112
Cl -4.549  0.940 -2.204

2
Na -3.795  3.968 -3.065
Cl -4.153  1.833 -3.093

2
Na -3.189  3.114 -2.219
Cl -4.895  0.162 -1.077

2
Na -3.435  3.104 -2.942
Cl -4.598  2.102 -1.448

2
Na -3.385  1.934 -3.231
Cl -5.843  2.047 -2.660

2
Na -2.971  2.244 -4.968
Cl -5.152  1.844 -4.085

2
Na -3.432  3.075 -5.952
Cl -4.949  0.993 -4.903

2
Na -3.264  3.254 -6.452
Cl -4.607  2.168 -4.483

2
Na -3.221  3.025 -6.282
Cl -3.911  2.862 -4.495

2
Na -2.294  3.231 -5.773
Cl -4.116  2.643 -3.532

2
Na -2.997  3.717 -4.500
Cl -3.743  1.772 -3.402

2
Na -3.541  3.324 -4.975
Cl -4.287  0.136 -4.035

2
Na -3.225  3.840 -4.969
Cl -5.735  1.849 -3.911

2
Na -2.700  3.755 -4.307
Cl -5.409  2.228 -3.135

2
Na -3.397  3.003 -3.349
Cl -4.981  2.662 -3.505

2
Na -3.877  4.564 -2.315
Cl -5.407  2.443 -3.335

2
Na -4.541  5.247 -2.665
Cl -5.697  2.875 -4.404

2
Na -4.846  3.859 -3.058
Cl -6.222  3.411 -4.749

2
Na -5.711  3.211 -4.424
Cl -7.486  3.695 -5.133

2
Na -7.270  3.010 -4.801
Cl -6.594  4.293 -5.424

2
Na -8.461  1.934 -5.232
Cl -5.452  3.317 -5.737

2
Na -8.040  2.307 -4.446
Cl -5.170  2.688 -6.874

2
Na -6.741  2.741 -4.307
Cl -5.258  3.137 -6.612

2
Na -4.787  3.642 -3.774
Cl -5.617  2.787 -6.929

2
Na -4.466  3.515 -3.695
Cl -5.435  3.626 -7.713

2
Na -5.001  3.502 -4.467
Cl -6.057  3.642 -7.112

2
Na -4.626  4.070 -5.902
Cl -4.158  3.468 -6.412

2
Na -3.981  3.572 -7.145
Cl -6.418  4.208 -5.795

2
Na -3.483  3.462 -6.170
Cl -5.332  2.768 -5.748

2
Na -4.254  5.156 -6.225
Cl -5.720  3.297 -5.391

2
Na -4.639  2.628 -5.685
Cl -4.246  4.695 -5.514

2
Na -4.722  1.883 -4.865
Cl -4.224  4.337 -4.599

2
Na -4.809  1.483 -4.990
Cl -3.408  4.437 -4.662

2
Na -5.484  3.732 -4.514
Cl -3.365  3.509 -4.298

2
Na -4.666  4.746 -4.919
Cl -3.414  3.308 -3.070

2
Na -3.979  3.203 -4.084
Cl -2.731  3.211 -3.047

2
Na -4.252  4.438 -5.404
Cl -4.140  2.941 -3.923

2
Na -3.830  4.880 -4.973
Cl -4.285  2.916 -4.322

2
Na -2.286  4.915 -4.091
Cl -2.928  3.001 -3.094

2
Na -2.067  5.306 -4.043
Cl -2.809  3.108 -3.636

2
Na -2.341  4.697 -4.020
Cl -3.537  1.346 -3.555

2
Na -1.862  4.691 -5.625
Cl -3.310  1.851 -3.873

2
Na -1.758  3.779 -6.354
Cl -3.819  1.098 -4.677

2
Na -2.628  4.867 -5.307
Cl -3.405  2.838 -4.402

2
Na -1.808  4.035 -5.726
Cl -4.154  3.372 -4.815

2
Na -1.755  3.975 -5.916
Cl -3.881  2.577 -4.755

2
Na -3.150  2.521 -5.907
Cl -2.268  2.886 -4.468

2
Na -3.945  2.515 -4.351
Cl -2.864  1.335 -6.028

2
Na -2.963  2.983 -4.435
Cl -3.307  0.734 -6.862

2
Na -2.665  2.536 -5.088
Cl -3.650  0.772 -6.210

2
Na -1.599  2.865 -4.258
Cl -4.398  0.070 -6.293

2
Na -2.638  3.278 -3.606
Cl -3.254  0.187 -6.917

2
Na -2.631  3.576 -4.135
Cl -3.696 -0.257 -6.995

2
Na -2.278  2.737 -4.004
Cl -2.407 -0.350 -7.164

2
Na -4.007  3.741 -4.761
Cl -2.254  0.058 -6.389

2
Na -3.392  2.862 -5.920
Cl -2.092  1.058 -6.102

2
Na -3.691  4.332 -4.782
Cl -1.728  2.097 -6.045

2
Na -4.770  4.033 -5.279
Cl -1.458  2.636 -6.345

2
Na -4.512  4.391 -5.805
Cl -2.577  0.930 -5.312

2
Na -3.271  2.763 -5.270
Cl -2.954  1.507 -5.110

2
Na -2.503  1.285 -5.556
Cl -3.607  1.825 -6.396

2
Na -1.207  2.210 -5.350
Cl -2.136  1.242 -6.721

2
Na -1.611  2.318 -4.723
Cl -2.484  1.531 -6.593

2
Na -1.772  2.602 -5.263
Cl -2.301  1.397 -6.820

2
Na -2.263  3.636 -4.742
Cl -3.261  2.960 -5.400

2
Na -3.174  2.890 -4.594
Cl -2.572  1.561 -4.651

2
Na -2.932  3.429 -5.031
Cl -3.342  1.954 -4.453

2
Na -2.265  2.731 -4.783
Cl -2.364  1.007 -5.337

2
Na -1.784  3.059 -5.431
Cl -1.914  1.082 -4.526

2
Na -2.605  2.940 -4.630
Cl -0.848  3.001 -3.826

2
Na -3.628  3.515 -5.109
Cl -1.482  3.958 -3.764

2
Na -3.005  4.259 -4.563
Cl -2.694  4.119 -3.300

2
Na -3.430  5.660 -4.384
Cl -1.559  4.325 -2.943

2
Na -1.986  6.101 -4.762
Cl -0.618  4.792 -1.839

2
Na -2.087  6.093 -5.198
Cl -0.113  6.041 -2.428

2
Na -2.225  7.056 -4.773
Cl -0.988  6.145 -1.115

2
Na -1.813  8.199 -3.707
Cl  0.443  5.430 -1.998

2
Na  0.365  6.584 -3.930
Cl -0.254  6.022 -1.400

2
Na -1.091  5.871 -3.021
Cl -1.979  6.195 -0.413

2
Na  0.269  6.090 -2.928
Cl -2.481  5.587  0.475

2
Na -0.968  5.018 -2.070
Cl -2.624  4.603 -1.026

2
Na -1.894  5.565 -0.991
Cl -3.475  4.765 -2.261

2
Na -2.007  6.840 -1.466
Cl -4.135  4.765 -2.927

2
Na -2.693  5.521 -0.395
Cl -4.102  4.145 -2.907

2
Na -3.597  4.699 -2.269
Cl -5.029  3.692 -2.232

2
Na -3.290  5.167 -2.177
Cl -4.962  3.529 -2.341

2
Na -3.378  4.872 -2.270
Cl -4.064  2.856 -2.749

2
Na -2.660  5.712 -1.305
Cl -4.156  2.024 -0.909

2
Na -1.106  5.151 -3.595
Cl -3.413  2.122 -1.857

2
Na -2.334  4.614 -3.173
Cl -3.612  2.144 -3.827

2
Na -3.002  3.402 -5.194
Cl -4.444  1.963 -4.599

2
Na -3.561  2.893 -4.896
Cl -4.179  1.449 -4.044

2
Na -3.289  2.161 -6.084
Cl -5.071  0.017 -4.670

2
Na -4.676  3.439 -4.524
Cl -5.826  1.647 -3.963

2
Na -5.784  2.823 -6.766
Cl -6.233  1.981 -4.560

2
Na -6.093  2.517 -7.115
Cl -5.922  2.256 -5.224

2
Na -4.304  2.205 -7.233
Cl -4.825  3.064 -4.742

2
Na -4.642  2.108 -7.687
Cl -4.729  4.178 -4.341

2
Na -3.975  3.086 -7.232
Cl -4.748  5.027 -4.438

2
Na -4.156  2.984 -5.860
Cl -4.921  4.225 -3.653

2
Na -4.694  2.725 -5.092
Cl -4.650  4.156 -4.355

2
Na -4.262  3.242 -5.293
Cl -5.323  3.819 -2.078

2
Na -3.629  2.756 -5.127
Cl -4.522  4.116 -3.596

2
Na -5.579  1.973 -4.419
Cl -5.791  5.076 -3.594

2
Na -5.754  2.165 -4.787
Cl -6.537  4.076 -4.874

2
Na -8.101  1.954 -5.932
Cl -7.698  4.186 -5.639

2
Na -8.723  1.608 -6.295
Cl -6.409  3.695 -6.382

2
Na  9.987  2.765 -5.080
Cl 14.118  4.288 -6.891

2
Na  9.367  1.721 -6.393
Cl 12.558  4.098 -6.388

2
Na -9.489  2.929 -5.955
Cl -7.984  3.902 -5.424

2
Na -9.635  4.252 -5.263
Cl -7.995  3.013 -5.839

2
Na -9.216  4.269 -4.257
Cl -7.367  3.507 -5.481

2
Na -8.213  4.582 -3.972
Cl -8.788  2.935 -5.674

2
Na -7.855  3.956 -5.462
Cl -9.946  2.491 -6.895

2
Na -7.385  3.519 -6.244
Cl -7.995  4.556 -6.047

2
Na -6.634  2.634 -6.974
Cl -7.433  4.865 -5.656

2
Na -7.870  2.073 -7.598
Cl -6.674  4.379 -5.719

2
Na -7.551  1.564 -7.213
Cl -7.488  4.128 -7.543

2
Na -8.123  1.755 -5.325
Cl -9.055  3.295 -7.892

2
Na -8.261  2.097 -4.780
Cl -9.287  1.017 -7.861

2
Na -9.468  1.170 -4.761
Cl -8.971  1.811 -6.118

2
Na  9.199  1.875 -2.909
Cl  8.553  0.934 -5.774

2
Na  7.721  2.759 -2.811
Cl  9.355  1.684 -5.158

2
Na  7.346  4.306 -2.718
Cl  9.705  1.843 -4.341

2
Na  6.851  4.415 -3.049
Cl  8.260  1.747 -4.079

2
Na  8.249  4.766 -2.715
Cl  8.070  1.531 -5.139

2
Na  8.172  5.144 -4.167
Cl  6.812  1.991 -6.239

2
Na  8.278  3.608 -5.740
Cl  6.344  2.060 -5.967

2
Na  8.605  3.916 -4.828
Cl  6.523  3.098 -6.403

2
Na  9.236  4.407 -6.584
Cl  6.407  4.435 -6.912

2
Na  9.314  4.698 -6.661
Cl  6.209  3.833 -6.479

2
Na  9.004  4.357 -7.964
Cl  8.209  3.357 -6.006

2
Na  8.124  5.078 -7.470
Cl  9.374  4.042 -5.438

2
Na  8.661  5.389 -7.447
Cl  9.658  3.405 -5.395

2
Na -9.016  5.215 -7.393
Cl -9.208  3.342 -5.085

2
Na -8.193  4.507 -8.795
Cl -7.991  4.520 -5.305

2
Na -8.905  5.144 -9.446
Cl -6.567  4.355 -5.311

2
Na -7.039  5.748 -8.261
Cl -7.199  3.940 -4.474

2
Na -8.144  6.467 -6.898
Cl -7.893  3.823 -4.022

2
Na -7.153  6.466 -5.733
Cl -7.571  4.451 -4.298

2
Na -7.893  6.185 -5.598
Cl -8.423  3.575 -4.841

2
Na -9.014  5.784 -5.622
Cl -8.635  3.596 -4.519

2
Na -8.137  4.602 -7.079
Cl -7.641  5.607 -3.828

2
Na -8.093  5.068 -6.121
Cl -7.959  5.802 -3.968

2
Na -7.501  6.092 -5.587
Cl -9.984  5.207 -3.412

2
Na -7.382  6.976 -6.378
Cl -8.016  6.086 -3.737

2
Na -6.853  6.890 -6.242
Cl -8.607  5.219 -4.881

2
Na -5.256  6.264 -5.999
Cl -7.890  4.906 -4.492

2
Na -5.437  5.887 -4.677
Cl -5.881  5.003 -3.315

2
Na -6.127  6.223 -3.836
Cl -5.083  4.125 -3.076

2
Na -5.129  6.739 -3.391
Cl -6.114  3.642 -1.764

2
Na -4.932  5.861 -1.250
Cl -6.614  4.563 -3.506

2
Na -5.908  5.430 -1.326
Cl -5.367  5.121 -4.153

2
Na -5.099  5.659 -2.979
Cl -4.936  6.455 -4.069

2
Na -4.782  5.040 -3.308
Cl -5.598  4.940 -4.107

2
Na -4.746  5.171 -3.484
Cl -5.522  4.917 -4.193

2
Na -4.759  4.760 -4.629
Cl -5.440  6.800 -4.926

2
Na -4.878  6.962 -2.540
Cl -6.071  7.160 -3.583

2
Na -4.584  7.999 -2.321
Cl -7.148  5.976 -3.120

2
Na -4.674  8.099 -3.095
Cl -5.447  4.645 -2.689

2
Na -3.666  7.720 -3.414
Cl -5.748  5.234 -3.008

2
Na -3.258  5.987 -2.925
Cl -5.182  5.114 -3.037

2
Na -1.897  5.217 -2.966
Cl -4.864  6.272 -2.763

2
Na -1.873  7.046 -2.534
Cl -4.133  6.488 -2.579

2
Na -2.808  7.345 -3.151
Cl -4.737  8.105 -3.542

2
Na -3.992  6.225 -3.007
Cl -5.324  7.599 -3.546

2
Na -4.701  6.442 -3.515
Cl -6.783  7.238 -3.550

2
Na -4.912  6.462 -2.681
Cl -6.468  7.104 -3.334

2
Na -4.664  6.303 -2.523
Cl -6.272  6.027 -3.947

2
Na -4.677  6.875 -3.284
Cl -6.399  6.478 -5.297

2
Na -4.849  7.623 -3.570
Cl -6.582  5.956 -5.010

2
Na -5.345  5.250 -2.647
Cl -7.372  3.088 -4.038

2
Na -5.661  5.921 -2.959
Cl -7.404  3.515 -4.925

2
Na -6.095  6.824 -4.422
Cl -8.032  3.488 -4.328

2
Na -7.253  8.315 -4.572
Cl -9.014  3.788 -3.440

2
Na -6.589  6.816 -3.573
Cl -6.841  3.210 -2.988

2
Na -7.501  5.059 -4.345
Cl -6.468  2.992 -2.671

2
Na -7.712  5.464 -5.087
Cl -5.226  4.482 -4.010

2
Na -6.796  6.040 -4.840
Cl -5.669  3.480 -5.101

2
Na -6.248  5.519 -6.070
Cl -5.916  2.417 -4.712

2
Na -5.434  4.672 -3.958
Cl -5.534  3.164 -4.524

2
Na -6.649  4.472 -3.138
Cl -6.018  2.736 -4.033

2
Na -6.238  4.327 -3.385
Cl -7.484  2.875 -3.359

2
Na -6.046  3.869 -3.559
Cl -7.814  3.480 -4.964

2
Na -6.400  4.886 -3.752
Cl -7.952  2.343 -3.903

2
Na -7.697  3.196 -2.865
Cl -5.922  2.972 -4.012

2
Na -7.331  4.705 -3.408
Cl -4.607  3.614 -2.847

2
Na -7.551  4.180 -4.326
Cl -5.011  3.760 -2.668

2
Na -6.450  2.790 -4.664
Cl -4.493  3.375 -4.476

2
Na -6.796  4.275 -5.678
Cl -4.488  3.910 -6.240

2
Na -4.930  4.139 -7.299
Cl -4.848  4.428 -4.686

2
Na -5.554  3.199 -6.439
Cl -4.522  3.894 -4.451

2
Na -5.881  2.329 -5.172
Cl -4.143  3.245 -2.953

2
Na -5.919  2.451 -3.693
Cl -3.729  1.990 -4.141

2
Na -6.142  1.935 -5.162
Cl -4.098  2.302 -4.615

2
Na -5.923  2.102 -6.260
Cl -4.629  1.300 -3.910

2
Na -5.652  1.275 -6.216
Cl -4.155  1.452 -4.445

2
Na -5.828  0.693 -5.717
Cl -5.496  1.325 -4.531

2
Na -4.886 -0.032 -5.288
Cl -6.918  1.828 -3.111

2
Na -5.717  0.076 -5.292
Cl -7.823  1.231 -3.200

2
Na -6.395 -0.497 -4.588
Cl -8.323 -0.420 -2.581

2
Na -6.871  0.334 -4.952
Cl -7.740 -0.589 -3.135

2
Na -7.503 -0.045 -3.974
Cl -7.381 -0.721 -2.814

2
Na -6.823  0.032 -1.451
Cl -8.151 -1.780 -2.511

2
Na -6.451 -0.046 -2.617
Cl -8.359 -0.784 -3.308

2
Na -7.630  0.362 -1.717
Cl -8.081 -1.918 -2.293

2
Na -6.626  0.984 -2.621
Cl -6.609 -1.575 -2.981

2
Na -6.132  2.357 -3.336
Cl -6.364 -1.934 -2.667

2
Na -6.413  1.739 -2.742
Cl -6.467 -1.774 -2.320

2
Na -6.454  1.708 -2.112
Cl -7.282 -1.008 -1.964

2
Na -6.424  2.267 -1.219
Cl -7.397 -0.757 -3.312

2
Na -7.095  2.442 -0.755
Cl -6.744 -0.353 -2.734

2
Na -5.718  0.875 -0.866
Cl -6.914 -1.033 -2.301

2
Na -7.176  0.745 -1.078
Cl -6.061 -1.875 -1.555

2
Na -6.381  1.150 -1.122
Cl -5.086 -1.378 -2.611

2
Na -7.902  1.085 -3.050
Cl -7.545 -2.705 -2.878

2
Na -8.073 -0.240 -2.769
Cl -6.918 -1.687 -2.489

2
Na -8.570  1.158 -4.139
Cl -6.672 -1.836 -2.835

2
Na -7.635  0.871 -4.150
Cl -7.450 -2.162 -2.064

2
Na -7.435  1.260 -2.502
Cl -7.023 -1.865 -2.838

2
Na -8.131  0.624 -2.170
Cl -8.197 -3.770 -3.150

2
Na -7.001 -0.656 -1.493
Cl -7.478 -4.103 -3.194

2
Na -8.213 -1.481 -1.361
Cl -8.391 -4.147 -3.908

2
Na -7.665 -1.574 -0.892
Cl -7.492 -4.547 -3.506

2
Na -8.904 -1.668 -2.053
Cl -7.684 -4.814 -3.461

2
Na -9.705 -2.287 -3.484
Cl -7.848 -3.641 -2.600

2
Na  9.889 -3.227 -3.230
Cl 12.547 -5.383 -2.712

2
Na -9.820 -2.179 -3.453
Cl -9.419 -4.845 -2.832

2
Na  9.968 -1.751 -1.093
Cl  9.884 -4.139 -1.737

2
Na -9.657 -0.725 -0.996
Cl -10.734 -3.664 -2.138

2
Na -9.861 -1.704 -2.230
Cl -10.936 -2.914 -3.774

2
Na  9.812 -2.946 -3.609
Cl 10.667 -4.084 -4.691

2
Na  8.514 -3.420 -2.850
Cl  8.810 -4.080 -5.126

2
Na  8.499 -2.832 -3.450
Cl  8.266 -4.251 -5.299

2
Na  7.075 -2.271 -4.836
Cl  8.645 -3.616 -4.321

2
Na  7.415 -2.376 -6.208
Cl  8.282 -3.518 -3.751

2
Na  7.386 -2.060 -5.863
Cl  8.362 -4.313 -4.544

2
Na  8.636 -2.188 -4.869
Cl  7.159 -4.154 -5.034

2
Na  8.384 -4.312 -2.498
Cl  6.296 -3.765 -3.536

2
Na  9.335 -4.376 -1.524
Cl  8.498 -2.277 -4.178

2
Na  9.392 -5.072 -0.490
Cl  9.105 -2.028 -2.856

2
Na -9.674 -5.315 -0.102
Cl -9.847 -2.420 -3.447

2
Na -8.846 -4.150  0.174
Cl -9.468 -1.956 -2.669

2
Na -8.767 -4.341 -0.299
Cl -9.085 -0.651 -1.914

2
Na -9.105 -3.636 -1.193
Cl -8.770 -0.581 -1.508

2
Na  9.673 -4.483 -1.385
Cl 11.092 -1.459 -0.493

2
Na  9.233 -3.987 -0.751
Cl 10.361 -2.242 -0.326

2
Na  8.767 -4.317 -1.378
Cl 10.468 -1.594 -2.159

2
Na  9.456 -2.149 -1.746
Cl  9.821 -0.816 -0.329

2
Na  9.123 -1.045 -1.298
Cl 11.398 -1.635 -0.633

2
Na  9.169 -1.157 -2.363
Cl 12.159 -1.585 -2.878

2
Na -9.618 -2.911 -3.912
Cl -10.119 -1.624 -3.331

2
Na -9.333 -2.146 -4.197
Cl -9.343 -2.039 -3.209

2
Na -9.779 -1.206 -6.418
Cl -7.900 -0.538 -3.836

2
Na -8.879 -0.417 -5.548
Cl -8.506 -0.455 -3.800

2
Na -7.748 -1.034 -4.498
Cl -9.945 -2.001 -5.346

2
Na -7.335 -0.385 -4.238
Cl -8.968 -0.618 -6.669

2
Na -8.450  0.013 -5.147
Cl -9.751 -0.932 -6.217

2
Na -8.358  0.144 -4.637
Cl -8.412 -0.135 -4.966

2
Na -7.888  0.526 -4.516
Cl -6.693 -0.668 -5.421

2
Na -9.416 -0.569 -3.356
Cl -6.006 -1.361 -5.142

2
Na -8.496 -0.750 -3.897
Cl -6.220 -1.048 -3.726

2
Na -6.351  0.694 -5.526
Cl -8.371  0.115 -4.309

2
Na -7.653  2.273 -6.478
Cl -8.911  1.563 -2.467

2
Na -7.869  3.085 -5.340
Cl -9.208  1.839 -3.367

2
Na -7.044  2.784 -6.728
Cl -8.979  1.521 -4.821

2
Na -6.299  2.854 -6.202
Cl -8.430  1.292 -4.079

2
Na -7.761  3.674 -5.200
Cl -9.225  2.485 -2.852

2
Na -6.308  3.611 -4.835
Cl -9.461  2.140 -4.177

2
Na -6.760  3.993 -4.693
Cl -9.873  2.640 -3.232

2
Na -6.891  2.576 -5.026
Cl -9.463  3.389 -4.583

2
Na -6.913  3.817 -6.302
Cl -9.424  2.977 -5.103

2
Na -9.072  5.747 -5.196
Cl -7.788  4.337 -6.994

2
Na -9.101  5.648 -6.603
Cl -9.480  5.268 -6.873

2
Na  9.468  6.371 -6.793
Cl 11.833  5.384 -7.324

2
Na -9.996  5.190 -7.370
Cl -7.701  4.662 -5.637

2
Na  9.486  4.772 -6.527
Cl 11.654  4.381 -6.437

2
Na  8.717  5.210 -7.019
Cl  9.497  4.612 -5.909

2
Na  7.202  4.744 -7.588
Cl  9.797  4.137 -6.166

2
Na  6.610  4.145 -7.177
Cl 10.515  4.092 -6.592

2
Na  6.371  3.868 -6.573
Cl  9.802  4.094 -7.087

2
Na  7.082  3.362 -6.318
Cl 10.011  4.656 -6.633

2
Na  8.981  3.660 -6.249
Cl  9.789  3.367 -5.865

2
Na  7.460  2.821 -6.310
Cl  9.461  3.402 -4.584

2
Na  7.322  2.782 -7.333
Cl  8.976  2.023 -6.096

2
Na  8.083  1.893 -8.559
Cl  8.839  1.951 -4.733

2
Na  8.264  0.227 -8.841
Cl  9.105  0.817 -4.798

2
Na  8.382 -0.794 -8.125
Cl  9.101  1.225 -6.290

2
Na  8.986 -0.530 -8.108
Cl  8.912  0.814 -6.169

2
Na  9.919 -1.368 -7.036
Cl  8.523  0.820 -7.495

2
Na  8.256 -0.725 -6.033
Cl  8.624  0.409 -6.481

2
Na  8.488 -1.023 -6.229
Cl  9.793  1.280 -7.383

2
Na  7.393 -0.701 -7.682
Cl  8.105 -0.111 -6.954

2
Na  5.510 -1.590 -8.615
Cl  7.752 -0.343 -7.773

2
Na  6.247 -1.789 -9.340
Cl  8.686 -1.578 -7.240

2
Na  6.593 -1.641 -9.039
Cl  9.028 -1.513 -6.964

2
Na  6.074 -1.964 -8.789
Cl  9.235 -0.866 -7.794

2
Na  5.644 -0.806 -6.670
Cl  8.523 -0.799 -8.103

2
Na  6.757 -1.830 -6.557
Cl  9.035 -1.015 -7.707

2
Na  6.708 -1.164 -5.358
Cl  8.158 -0.774 -9.147

2
Na  6.250 -1.087 -4.939
Cl  8.736 -0.281 -9.150

2
Na  8.743 -1.061 -5.958
Cl  9.373  0.075 -9.750

2
Na  9.800 -1.205 -5.916
Cl  9.373  0.075 -9.750

2
Na  9.232 -0.722 -7.736
Cl  8.805  0.274 -8.314

2
Na  9.387 -0.433 -8.744
Cl  7.416 -1.093 -8.987

2
Na -9.865 -1.039 -8.342
Cl -13.423 -1.530 -8.795

2
Na -9.824 -1.234 -7.229
Cl -12.412 -2.617 -7.557

2
Na -9.628 -0.807 -8.214
Cl -12.059 -3.002 -7.419

2
Na -9.165 -2.543 -7.594
Cl -11.322 -3.684 -7.792

2
Na -8.934 -3.518 -7.561
Cl -10.988 -3.722 -6.890

2
Na -9.487 -2.977 -7.193
Cl -12.626 -3.926 -6.354

2
Na  9.569 -1.212 -6.021
Cl  7.434 -4.212 -5.872

2
Na  9.654 -0.212 -5.350
Cl  6.773 -2.421 -5.909

2
Na  8.280 -0.448 -5.689
Cl  7.336 -2.642 -5.514

2
Na  7.008 -2.475 -4.630
Cl  7.738 -3.133 -5.124

2
Na  5.459 -3.207 -5.046
Cl  7.778 -2.023 -6.088

2
Na  5.001 -4.077 -5.296
Cl  7.105 -2.408 -5.087

2
Na  5.952 -4.828 -5.334
Cl  5.464 -1.860 -4.025

2
Na  6.208 -3.483 -5.570
Cl  7.424 -1.127 -5.484

2
Na  5.540 -4.108 -6.196
Cl  8.002 -1.870 -5.974

2
Na  5.957 -4.799 -4.651
Cl  7.667 -1.109 -5.217

2
Na  6.220 -3.041 -5.970
Cl  7.105 -0.966 -6.694

2
Na  6.173 -2.618 -4.495
Cl  7.934 -1.745 -6.986

2
Na  8.395 -2.775 -4.106
Cl  8.898 -0.536 -5.142

2
Na  9.189 -2.170 -4.677
Cl  9.590  0.052 -5.089

2
Na  7.141 -3.197 -4.566
Cl  8.057 -1.188 -5.654

2
Na  7.094 -1.255 -4.623
Cl  7.430 -1.741 -5.375

2
Na  6.352 -1.111 -2.111
Cl  7.021 -2.632 -6.122

2
Na  5.697 -0.448 -3.596
Cl  6.418 -2.350 -5.140

2
Na  7.635 -0.848 -3.552
Cl  6.396 -0.821 -1.850

2
Na  8.473 -0.159 -2.775
Cl  7.918 -1.078 -0.505

2
Na  9.646  0.782 -0.304
Cl  8.078 -0.000 -2.456

2
Na  9.042  1.180 -0.294
Cl  8.396 -1.679 -1.752

2
Na  8.211  1.262  0.265
Cl  8.996 -0.831 -1.362

2
Na  8.566 -0.020  0.897
Cl  7.660 -1.013 -0.581

2
Na  8.860 -0.095  0.859
Cl  8.250  0.049  0.112

2
Na  8.713  0.246  2.099
Cl  7.088 -0.658  1.087

2
Na  8.236 -1.709  2.788
Cl  6.401 -1.441  2.788

2
Na  8.725 -1.611  2.707
Cl  5.759 -1.512  2.464

2
Na  8.333 -0.875  1.935
Cl  5.320 -1.998  2.469

2
Na  8.174 -0.675  2.749
Cl  5.139 -1.318  2.708

2
Na  8.311  0.399  2.708
Cl  6.665 -2.074  3.530

2
Na  7.732  1.464  2.760
Cl  6.702 -0.367  2.418

2
Na  9.070  0.152  2.716
Cl  7.700 -0.635  2.159

2
Na  8.563  0.421  2.510
Cl  8.243  1.321  1.483

2
Na  8.904  0.194  4.177
Cl  9.483  1.151  2.722

2
Na  8.095  1.835  2.471
Cl  9.342  0.363  4.111

2
Na  6.799  2.028  2.350
Cl  8.002  1.331  4.051

2
Na  6.765  2.501  1.276
Cl  6.372  1.998  4.763

2
Na  6.431  2.216  1.537
Cl  7.110  1.608  4.898

2
Na  5.759  2.214  2.095
Cl  6.423  1.972  5.266

2
Na  5.986  1.393  3.715
Cl  6.070  1.523  5.711

2
Na  4.205  1.105  4.056
Cl  5.427  1.950  5.309

2
Na  4.752  2.571  4.218
Cl  4.430 -0.176  5.191

2
Na  6.065  3.261  5.577
Cl  5.609 -0.158  5.429

2
Na  5.119  0.857  5.648
Cl  5.823 -0.228  6.004

2
Na  5.252 -0.560  7.258
Cl  4.956  0.574  6.691

2
Na  6.057  0.851  7.788
Cl  5.440  0.615  6.869

2
Na  6.192  0.390  7.989
Cl  4.980  0.587  7.740

2
Na  6.959  0.945  7.231
Cl  5.348  0.172  7.061

2
Na  7.918  0.676  7.177
Cl  6.503  0.749  6.295

2
Na  8.393  2.075  7.514
Cl  5.925  2.059  6.208

2
Na  9.238  1.976  7.449
Cl  7.546  1.188  6.215

2
Na  7.418  3.477  6.744
Cl  7.805  0.510  6.849

2
Na  6.258  2.567  7.269
Cl  7.007  0.542  7.872

2
Na  6.557  2.858  8.138
Cl  8.107 -0.330  7.602

2
Na  5.070  1.036  7.852
Cl  7.259 -0.310  6.821

2
Na  5.656  0.891  8.352
Cl  8.542 -0.013  9.347

2
Na  6.436 -1.438  7.748
Cl  6.080  0.440  9.145

2
Na  6.894 -1.602  7.817
Cl  5.480 -0.703  9.518

2
Na  8.564 -1.432  8.055
Cl  5.600 -0.685 10.176

2
Na  7.581 -2.743  9.328
Cl  5.503 -2.508  9.935

2
Na  7.809 -2.322  8.625
Cl  7.402 -3.203 10.099

2
Na  7.560 -1.532  7.805
Cl  8.299 -2.432  8.585

2
Na  9.272 -2.759  6.483
Cl  8.480 -2.819  7.141

2
Na  8.618 -2.381  5.838
Cl 10.166 -1.852  8.376

2
Na  8.286 -2.676  6.938
Cl 11.509 -2.129  8.360

2
Na  9.608 -1.488  5.694
Cl 11.832 -3.126  7.160

2
Na  9.754 -1.353  5.305
Cl  9.803 -1.640  7.120

2
Na  9.815 -2.304  3.641
Cl  8.666 -2.443  5.737

2
Na  8.776 -2.249  3.332
Cl 10.033 -2.268  5.351

2
Na  8.572 -1.901  3.785
Cl  8.987 -2.094  5.610

2
Na  8.321 -2.024  3.749
Cl  8.491 -3.013  4.723

2
Na  7.963 -2.509  3.170
Cl  9.862 -4.442  5.014

2
Na  8.111 -0.925  4.457
Cl 10.194 -1.859  4.598

2
Na  7.730 -1.416  4.625
Cl  9.838 -0.373  3.107

2
Na  7.575  0.929  5.367
Cl  9.007 -0.529  4.088

2
Na  6.132  0.054  5.442
Cl  9.974 -0.969  4.765

2
Na  7.253  0.106  4.842
Cl 10.114 -1.706  4.098

2
Na  8.225 -0.352  4.800
Cl  9.797 -2.568  3.951

2
Na  8.170 -0.298  5.299
Cl 11.200 -0.573  4.470

2
Na -9.929  0.213  4.765
Cl -9.982 -1.970  5.076

2
Na  9.067  0.304  4.705
Cl 10.126 -1.302  5.417

2
Na  9.060  0.623  5.949
Cl 10.297 -1.163  7.411

2
Na  8.771 -0.936  8.699
Cl 10.657 -1.207  8.266

2
Na  9.556 -0.898  7.621
Cl 11.690 -0.586  9.067

2
Na -8.683 -2.519  7.524
Cl -8.253 -0.047  8.633

2
Na -9.319 -2.303  6.812
Cl -8.303 -1.127  8.559

2
Na -7.921 -1.508  6.864
Cl -8.360 -0.774  8.476

2
Na -6.261 -0.432  7.808
Cl -9.672  0.230  7.971

2
Na -7.939 -0.986  8.521
Cl -9.471 -3.233  8.271

2
Na -9.666 -1.678  6.837
Cl -8.963 -2.692  9.997

2
Na -8.743 -1.374  7.145
Cl -9.589 -2.507  9.782

2
Na -9.168 -0.821  7.009
Cl -9.535 -1.852  8.385

2
Na -8.355 -0.417  7.942
Cl -9.255 -1.914  8.317

2
Na -9.320  0.349  9.938
Cl -8.849 -3.449  9.594

2
Na -8.756 -0.705 -9.416
Cl -8.652 -3.093 -11.593

2
Na -9.154 -0.263 -9.425
Cl -9.742 -3.148 -11.748

2
Na -8.364 -1.051  9.301
Cl -10.081 -2.723  9.202

2
Na -9.200 -0.930  8.142
Cl -10.037 -2.457  8.513

2
Na -9.541 -0.824  7.943
Cl -11.272 -1.083  8.640

2
Na -8.791 -0.674  9.481
Cl -11.403 -0.990  7.499

2
Na -8.614 -0.058  8.046
Cl -10.044 -1.928  7.748

2
Na -9.507 -0.316  7.188
Cl -8.213 -1.716  8.839

2
Na -8.495 -1.216  6.730
Cl -7.979 -2.663  7.646

2
Na -6.252 -1.656  7.522
Cl -8.647 -3.340  7.069

2
Na -7.545 -1.849  7.143
Cl -9.567 -2.674  7.295

2
Na -6.414 -1.814  7.344
Cl -10.153 -1.926  7.437

2
Na -6.881 -2.900  6.885
Cl -8.438 -2.573  7.584

2
Na -7.618 -2.891  7.342
Cl -10.144 -1.973  8.912

2
Na -8.605 -1.535  5.776
Cl -9.505 -1.777  7.795

2
Na -8.351 -2.721  5.678
Cl -9.968 -2.160  8.922

2
Na -9.235 -1.300  5.642
Cl -10.487 -1.667  7.678

2
Na -8.795 -1.615  5.571
Cl -10.551 -0.616  8.212

2
Na -9.308 -1.617  5.667
Cl -8.929 -1.391  8.075

2
Na  9.622 -0.485  4.982
Cl  9.329 -2.596  7.954

2
Na -7.683 -1.215  4.676
Cl -10.987 -1.602  8.822

2
Na -8.225 -1.742  4.430
Cl -10.236 -1.896  7.265

2
Na -7.236 -2.632  6.448
Cl -9.984 -1.533  5.896

2
Na -7.390 -1.974  6.268
Cl -8.607 -0.635  6.254

2
Na -8.439 -1.642  7.029
Cl -8.159 -0.522  5.641

2
Na -7.378  0.826  6.653
Cl -5.885  0.153  6.143

2
Na -8.490  1.793  6.347
Cl -5.837 -0.659  6.672

2
Na -7.637  1.316  6.269
Cl -8.360 -0.024  5.079

2
Na -6.910 -0.584  4.820
Cl -8.586 -0.232  5.449

2
Na -7.317 -0.243  5.198
Cl -9.104  0.243  6.169

2
Na -7.417 -0.046  6.757
Cl -9.610  3.078  6.349

2
Na -8.129  0.215  6.306
Cl -10.668  0.649  7.895

2
Na -8.482  0.339  6.779
Cl -11.143 -0.251  7.086

2
Na -9.067  1.698  5.645
Cl -10.225  0.806  5.321

2
Na  9.746  1.644  5.509
Cl 10.892  1.775  4.986

2
Na  9.628  1.204  6.319
Cl 10.838  3.293  4.655

2
Na -9.999  0.966  6.566
Cl -7.391  4.173  4.936

2
Na -9.782  0.705  6.574
Cl -7.998  3.364  6.238

2
Na  9.255  0.796  6.553
Cl 13.032  2.214  6.027

2
Na -9.465  1.003  6.229
Cl -6.898  1.441  6.038

2
Na -6.893  0.198  6.668
Cl -5.811  1.898  5.865

2
Na -6.387  0.416  5.434
Cl -5.613  1.408  5.400

2
Na -4.578  1.088  3.922
Cl -4.805  0.076  4.277

2
Na -5.446  1.506  4.990
Cl -5.656 -0.842  5.590

2
Na -6.058  1.638  5.297
Cl -4.956 -0.258  5.297

2
Na -5.232  1.275  6.716
Cl -5.231 -0.647  5.591

2
Na -4.805  2.503  6.188
Cl -4.877 -0.012  5.612

2
Na -4.722  2.455  6.739
Cl -5.821 -0.878  8.096

2
Na -4.457  3.141  6.325
Cl -7.121 -0.480  7.876

2
Na -4.457  3.141  6.325
Cl -6.228 -0.641  7.190

2
Na -3.541  2.755  4.946
Cl -6.524 -0.112  5.337

2
Na -3.394  1.433  3.799
Cl -7.433  0.186  4.739

2
Na -3.321  0.590  4.285
Cl -5.732 -0.922  4.723

2
Na -4.167  0.032  5.020
Cl -6.805 -0.532  4.506

2
Na -4.863  0.072  4.935
Cl -6.003 -1.355  3.748

2
Na -5.659 -0.022  4.291
Cl -6.921 -2.773  4.551

2
Na -5.804 -0.674  4.033
Cl -7.362 -1.719  5.677

2
Na -5.575 -1.334  5.330
Cl -6.853 -3.067  6.720

2
Na -7.195 -1.769  6.460
Cl -6.715 -3.179  7.483

2
Na -7.212 -0.281  5.811
Cl -6.573 -3.287  7.505

2
Na -8.364  0.036  6.188
Cl -6.327 -2.165  7.595

2
Na -8.862 -0.699  6.935
Cl -6.245 -2.242  8.366

2
Na  9.982  0.102  8.549
Cl 12.348 -0.580  8.231

2
Na  9.536 -0.718  7.399
Cl 12.375 -1.468  9.312

2
Na  9.834 -2.404  6.598
Cl 11.682 -1.546  7.466

2
Na -9.772 -2.310  6.201
Cl -8.070 -1.877  8.333

2
Na -8.882 -2.715  7.327
Cl -7.826 -1.546  8.503

2
Na  9.410 -1.410  7.227
Cl 11.527 -2.416  8.690

2
Na  8.739 -2.365  7.051
Cl 11.388 -1.219  9.284

2
Na  7.869 -1.386  6.803
Cl 10.065 -0.872  9.778

2
Na  8.439 -2.215  7.497
Cl  9.435 -1.515  9.099

2
Na  8.742 -3.896  7.467
Cl 10.883 -1.364  8.528

2
Na -9.553 -3.510  6.614
Cl -8.993 -2.142  7.345

2
Na -9.431 -5.338  6.856
Cl -9.597 -2.598  7.154

2
Na -8.360 -3.309  7.981
Cl -8.682 -3.721  6.849

2
Na -8.032 -2.873  8.376
Cl -8.775 -3.807  7.344

2
Na -9.211 -2.967 -9.979
Cl -9.986 -4.102 -11.947

2
Na -9.302 -4.061 -9.259
Cl -10.768 -3.217 -12.443

2
Na -9.705 -3.434 -9.399
Cl -11.741 -2.157 -12.405

2
Na -9.728 -2.673 -9.058
Cl -10.927 -3.487 -12.331

2
Na  8.936 -3.474 -8.359
Cl  8.140 -3.888 -11.305

2
Na  9.697 -3.009  9.375
Cl  8.309 -5.066  7.268

2
Na  9.492 -3.095  8.373
Cl  7.713 -4.684  7.242

2
Na  8.103 -3.451  8.761
Cl  7.781 -5.843  8.269

2
Na  8.206 -4.611  8.801
Cl  8.410 -6.970  7.311

2
Na  9.280 -4.302  9.175
Cl  9.904 -7.223  8.272

2
Na -9.641 -4.761  9.110
Cl -9.479 -6.550  9.559

2
Na -9.008 -4.668  7.856
Cl -9.851 -8.415  8.396

2
Na -9.214 -5.516  7.165
Cl -9.962 -7.784  8.567

2
Na -8.916 -5.955  5.593
Cl -9.240 -8.029  7.618

2
Na -8.027 -5.950  6.422
Cl -7.339 -7.758  8.607

2
Na -8.027 -6.260  6.724
Cl -8.542 -7.296  8.669

2
Na -8.221 -5.832  6.308
Cl -6.964 -7.018  9.392

2
Na -6.471 -5.788  6.834
Cl -7.832 -7.874  8.503

2
Na -6.174 -5.619  6.669
Cl -7.658 -8.564  7.085

2
Na -7.809 -5.351  6.168
Cl -8.905 -8.590  8.254

2
Na -8.547 -5.601  7.937
Cl -7.977 -9.061  7.469

2
Na -9.038 -5.598  7.886
Cl -7.837 -8.064  8.531

2
Na -9.301 -5.610  8.045
Cl -6.905 -7.528  7.189

2
Na -9.506 -5.619  8.059
Cl -7.694 -7.775  6.542

2
Na  9.686 -5.442  8.822
Cl  9.981 -7.312  7.252

2
Na -9.920 -6.919  9.067
Cl -9.510 -5.510  7.586

2
Na  9.019 -7.146  8.664
Cl 12.058 -6.264  9.453

2
Na  9.653 -7.430  8.185
Cl  9.540 -5.366  9.812

2
Na -9.911 -7.640  6.934
Cl -10.970 -5.456  9.210

2
Na -8.386 -6.496  6.748
Cl -10.761 -6.263  9.714

2
Na -8.197 -5.807  7.404
Cl -10.669 -6.035  9.153

2
Na -8.594 -5.349  7.173
Cl -11.053 -6.087  9.096

2
Na  9.676 -5.945  7.114
Cl 11.115 -4.890  8.284

2
Na -9.754 -4.845  7.526
Cl -7.901 -5.418  9.294

2
Na  9.768 -5.544  9.088
Cl 11.792 -4.215  9.378

2
Na -9.884 -4.839  8.820
Cl -7.136 -3.928  9.993

2
Na  9.127 -4.549  8.751
Cl 13.480 -3.815  9.233

2
Na  9.103 -4.370  8.829
Cl 12.981 -5.074  9.601

2
Na  9.253 -4.326  9.243
Cl 11.880 -5.254  9.569

2
Na -9.733 -3.158  9.378
Cl -9.536 -5.475  9.122

2
Na  8.775 -3.328  8.670
Cl 10.823 -6.183  9.155

2
Na -9.910 -2.639  9.695
Cl -8.873 -5.514 10.557

2
Na -8.992 -2.365 -9.326
Cl -9.732 -5.652 -10.176

2
Na -9.245 -2.386 -9.911
Cl -10.233 -4.937 -10.321

2
Na  9.937 -3.255  9.895
Cl 10.547 -5.106 10.742

2
Na  9.907 -4.141  9.849
Cl 10.791 -4.774 11.749

2
Na -9.361 -6.540 -9.562
Cl -10.877 -6.282 -8.357

2
Na  9.145 -5.782 -9.834
Cl  8.685 -6.340 -8.673

2
Na  9.087 -6.394 -9.044
Cl  9.203 -4.453 -7.987

2
Na  8.883 -5.963 -9.499
Cl  8.656 -6.547 -7.708

2
Na  9.625 -6.582  9.961
Cl  8.092 -7.680  9.991

2
Na  8.619 -5.450 -8.275
Cl  7.602 -7.554 -10.095

2
Na  8.352 -7.057 -7.573
Cl  7.803 -8.886 -10.596

2
Na  7.977 -7.444 -7.949
Cl  8.344 -8.622 -10.556

2
Na -9.811 -7.071 -7.648
Cl -12.083 -7.556 -9.877

2
Na  7.617 -7.383 -8.243
Cl  6.908 -7.894 -10.298

2
Na  5.152 -8.349 -7.889
Cl  4.927 -8.713 -10.179

2
Na  5.334 -7.854 -7.713
Cl  4.200 -9.027 -11.027

2
Na  6.231 -8.262 -6.771
Cl  5.109 -9.238 -11.081

2
Na  5.875 -8.592 -7.831
Cl  5.361 -9.791 -8.664

2
Na  5.850 -9.667 -9.501
Cl  3.923 -10.963 -8.029

2
Na  5.473  9.393  9.612
Cl  3.592  9.382 12.873

2
Na  4.881 -9.723  9.025
Cl  2.162 -8.998 12.695

2
Na  4.081 -9.956 -9.026
Cl  2.534 -9.862 -8.322

2
Na  3.951  8.788 -8.490
Cl  0.640  9.698 -7.962

2
Na  3.700  8.583 -7.683
Cl  1.335  9.499 -7.362

2
Na  2.328  7.622 -7.419
Cl  0.758  7.919 -6.898

2
Na  1.986  8.196 -7.292
Cl  0.438  8.097 -8.506

2
Na  2.967  7.568 -6.579
Cl  1.772  8.961 -9.515

2
Na  1.632  8.583 -5.913
Cl  1.168  8.516 -9.725

2
Na  0.870  8.339 -6.231
Cl  1.706  8.559 -9.892

2
Na -0.202  7.709 -7.334
Cl  1.237  7.462 -9.587

2
Na  0.360  7.498 -7.207
Cl  0.686  9.451 -9.862

2
Na  1.002  7.227 -8.401
Cl  1.437  8.808 -9.000

2
Na  0.382  7.267  9.673
Cl  0.471  7.826 10.671

2
Na  2.175  8.064  8.951
Cl -0.699  7.525 11.173

2
Na  1.330  8.061  7.812
Cl -0.978  7.215 10.567

2
Na  2.361  7.251  7.882
Cl -1.587  8.813 11.546

2
Na  0.900  8.707  7.451
Cl -1.119  8.026 12.385

2
Na  1.354  8.001  8.280
Cl  0.101 10.120 11.219

2
Na  1.605  8.271  7.557
Cl -0.644  9.896  9.980

2
Na  1.674  7.544  7.607
Cl -1.542  9.066  9.551

2
Na  0.978  5.383  7.269
Cl -1.017  8.948  9.213

2
Na  0.986  6.014  7.075
Cl -1.545  8.670  9.073

2
Na  0.105  7.035  7.081
Cl -1.619  9.283  8.296

2
Na -1.518  6.683  8.339
Cl -1.442  8.407  8.142

2
Na -1.752  6.742 -8.818
Cl -0.684  6.227 -11.713

2
Na -1.456  7.117 -9.333
Cl -0.765  5.462 -12.763

2
Na -2.420  7.832 -9.767
Cl -1.384  5.256 -11.501

2
Na -1.456  7.263  7.410
Cl -0.860  6.353  7.909

2
Na -1.713  7.866  7.005
Cl -0.764  7.132  8.233

2
Na -1.952  8.170  6.267
Cl -1.020  8.175  8.432

2
Na -2.653  6.834  7.101
Cl -0.435  8.935  7.828

2
Na -1.209  7.950  6.503
Cl  0.398  9.220  8.242

2
Na -0.754  7.501  5.400
Cl -0.095  7.630  7.748

2
Na -0.087  7.071  5.980
Cl -0.825  7.728  6.980

2
Na  0.291  6.294  5.804
Cl -0.218  6.705  7.771

2
Na  0.256  6.365  5.883
Cl -1.028  7.918  7.251

2
Na -0.099  6.722  4.815
Cl -2.524  6.823  6.460

2
Na  0.206  6.436  5.780
Cl -3.508  6.099  6.232

2
Na -0.863  6.714  6.191
Cl -1.640  5.070  6.111

2
Na -1.062  6.276  6.786
Cl -0.627  4.390  6.588

2
Na -1.144  4.567  6.061
Cl -0.045  5.055  8.559

2
Na -0.765  5.060  7.811
Cl -0.018  4.859  6.934

2
Na -0.512  3.887  8.244
Cl -2.543  5.149  7.355

2
Na -2.019  3.782  9.044
Cl -3.124  5.783  8.653

2
Na -1.035  3.713 -9.530
Cl -2.695  4.913 -10.905

2
Na -1.025  3.240  9.609
Cl -2.270  4.396 10.399

2
Na -1.929  3.604  9.654
Cl -3.676  4.643 10.158

2
Na -0.985  4.391  9.497
Cl -4.060  5.682  8.747

2
Na -2.311  3.177  9.216
Cl -3.524  6.583  9.040

2
Na -2.659  4.879  9.761
Cl -4.028  4.340  9.037

2
Na -3.011  5.162 -9.477
Cl -4.497  4.170 -9.784

2
Na -2.124  5.201 -8.824
Cl -3.913  3.598 -9.757

2
Na -2.842  5.713 -8.766
Cl -4.816  4.092 -8.151

2
Na -2.440  6.774 -8.424
Cl -5.942  5.364 -8.012

2
Na -3.392  7.760 -8.325
Cl -5.981  5.437 -7.515

2
Na -3.779  7.423 -9.271
Cl -4.820  4.542 -8.029

2
Na -3.928  6.958 -7.110
Cl -4.785  5.157 -9.186

2
Na -4.733  6.865 -6.996
Cl -5.389  4.490 -8.476

2
Na -5.213  5.904 -8.613
Cl -4.897  4.867 -6.942

2
Na -5.787  7.077 -8.002
Cl -4.795  5.245 -6.373

2
Na -4.566  7.838 -7.274
Cl -4.244  5.994 -5.910

2
Na -3.710  6.906 -7.860
Cl -4.832  5.636 -7.775

2
Na -3.068  5.426 -6.882
Cl -4.651  6.676 -7.885

2
Na -6.423  6.320 -6.311
Cl -4.316  7.944 -7.509

2
Na -5.831  6.094 -6.948
Cl -5.188  8.624 -7.399

2
Na -6.276  6.788 -6.266
Cl -5.905  8.098 -6.358

2
Na -6.013  7.435 -7.324
Cl -4.623  9.305 -6.157

2
Na -6.341  7.114 -7.935
Cl -5.460  7.744 -6.422

2
Na -6.055  6.964 -8.395
Cl -6.863  7.192 -5.673

2
Na -6.169  6.615 -7.160
Cl -7.107  8.901 -6.319

2
Na -6.658  6.501 -5.945
Cl -6.987  8.335 -5.648

2
Na -6.586  6.104 -6.551
Cl -8.020  7.936 -5.754

2
Na -6.651  8.656 -6.167
Cl -7.913  7.985 -4.998

2
Na -7.455  7.699 -6.430
Cl -6.439  8.840 -4.983

2
Na -6.062  8.286 -6.743
Cl -6.820  8.558 -5.489

2
Na -7.266  6.940 -7.301
Cl -7.340  8.807 -7.610

2
Na -4.869  6.729 -7.727
Cl -6.602  9.727 -6.359

2
Na -4.199  6.951 -6.048
Cl -6.151  8.848 -6.005

2
Na -5.418  5.645 -4.273
Cl -5.498  8.346 -6.006

2
Na -4.350  6.086 -4.052
Cl -7.029  8.437 -6.482

2
Na -3.785  6.351 -3.574
Cl -6.074  6.488 -6.542

2
Na -4.128  6.332 -2.713
Cl -5.920  6.537 -5.541

2
Na -5.976  5.905 -2.103
Cl -5.469  6.837 -4.758

2
Na -5.933  5.842 -3.588
Cl -6.210  6.105 -5.461

2
Na -5.453  4.856 -3.624
Cl -6.113  6.183 -4.557

2
Na -5.289  6.137 -2.781
Cl -6.591  6.112 -2.950

2
Na -5.129  5.729 -4.463
Cl -5.230  6.127 -3.655

2
Na -5.521  5.815 -4.162
Cl -4.162  6.984 -4.089

2
Na -5.707  5.011 -4.002
Cl -4.778  7.397 -4.163

2
Na -5.650  4.423 -4.075
Cl -5.990  7.594 -3.653

2
Na -5.479  3.917 -4.397
Cl -6.473  7.106 -3.702

2
Na -5.461  3.126 -3.064
Cl -6.204  7.545 -2.822

2
Na -4.602  3.023 -2.837
Cl -6.854  6.456 -2.256

2
Na -4.041  4.313 -2.620
Cl -7.127  6.769 -3.203

2
Na -3.651  2.913 -4.102
Cl -5.557  6.785 -3.675

2
Na -3.031  3.255 -3.115
Cl -4.053  7.104 -4.821

2
Na -1.585  3.687 -3.452
Cl -3.323  6.634 -3.745

2
Na -2.795  4.064 -2.567
Cl -3.118  6.481 -4.943

2
Na -3.135  5.172 -2.429
Cl -3.397  6.507 -4.078

2
Na -2.138  5.069 -0.759
Cl -4.071  7.193 -2.552

2
Na -2.576  4.878 -1.524
Cl -3.217  5.242 -2.342

2
Na -3.020  6.193 -1.641
Cl -4.021  3.658 -1.950

2
Na -3.581  5.758 -2.593
Cl -3.189  3.278 -2.361

2
Na -4.132  3.836 -3.426
Cl -2.416  3.224 -1.528

2
Na -4.696  2.910 -3.376
Cl -2.755  4.336 -0.926

2
Na -4.487  3.798 -2.265
Cl -1.866  4.489 -0.659

2
Na -3.654  3.873 -1.741
Cl -3.352  4.551 -0.027

2
Na -2.576  3.546  0.007
Cl -2.475  4.349  0.243

2
Na -2.492  2.582  0.694
Cl -3.634  3.891  1.056

2
Na -2.638  2.562  0.543
Cl -3.880  3.391  1.550

2
Na -1.349  2.989  0.282
Cl -3.618  3.974  2.453

2
Na -0.897  3.839  1.272
Cl -3.703  3.340  3.800

2
Na -1.755  4.503  1.835
Cl -3.781  2.714  5.019

2
Na -2.056  4.875  1.958
Cl -4.441  2.375  4.656

2
Na -1.738  4.884  3.031
Cl -4.621  2.639  3.391

2
Na -1.982  4.405  2.460
Cl -3.603  1.711  3.061

2
Na -3.018  4.006  2.992
Cl -4.165  0.979  3.943

2
Na -3.036  2.763  3.925
Cl -5.027  1.379  3.812

2
Na -5.043  1.854  3.467
Cl -3.941  0.768  5.836

2
Na -4.736  2.257  2.869
Cl -3.361  1.352  6.136

2
Na -5.608  0.830  4.451
Cl -2.954  0.227  6.582

2
Na -4.809 -0.330  4.033
Cl -4.373 -1.222  6.286

2
Na -5.706 -1.047  3.130
Cl -5.812 -2.267  4.895

2
Na -6.100 -1.090  4.174
Cl -7.107 -1.004  5.718

2
Na -4.300 -2.378  4.158
Cl -7.509 -1.608  4.677

2
Na -4.657 -2.224  4.829
Cl -7.594 -2.019  5.045

2
Na -4.839 -2.454  4.749
Cl -8.102 -1.500  4.914

2
Na -5.191 -1.117  4.063
Cl -8.096 -1.293  4.168

2
Na -5.389 -1.098  3.970
Cl -7.249 -0.625  5.266

2
Na -4.841 -2.296  3.550
Cl -6.779 -1.277  4.537

2
Na -4.671 -2.153  2.361
Cl -7.696 -0.193  5.579

2
Na -5.275 -2.693  3.056
Cl -8.306 -1.911  4.045

2
Na -5.457 -0.988  2.942
Cl -7.907 -2.343  4.537

2
Na -5.972 -1.237  4.012
Cl -7.348 -2.220  4.410

2
Na -6.004 -1.038  1.881
Cl -6.322 -1.620  5.170

2
Na -5.383 -0.763  1.263
Cl -4.837 -1.607  5.155

2
Na -6.231 -1.365  2.240
Cl -4.148 -2.143  4.123

2
Na -5.608 -1.780  2.984
Cl -5.069 -2.452  5.059

2
Na -3.216 -2.270  3.153
Cl -5.362 -2.620  4.845

2
Na -4.002 -3.626  3.075
Cl -6.003 -2.052  4.960

2
Na -3.283 -1.093  3.439
Cl -4.601 -1.646  5.261

2
Na -3.368  0.041  2.592
Cl -5.643 -2.072  4.176

2
Na -2.969 -0.084  2.172
Cl -6.337 -2.624  2.688

2
Na -5.009 -0.057  1.602
Cl -6.797 -3.069  3.228

2
Na -4.847 -0.223  0.724
Cl -6.825 -2.327  1.980

2
Na -4.094  1.082  0.563
Cl -6.104 -1.400  1.866

2
Na -4.202  0.316  0.054
Cl -4.398 -1.560  0.456

2
Na -4.580  2.189  1.152
Cl -5.895 -0.052  1.377

2
Na -4.449  1.926  0.857
Cl -6.263  0.888  1.627

2
Na -4.946 -0.180  0.458
Cl -6.402  0.303  0.125

2
Na -5.145 -0.218  1.035
Cl -5.680  1.695  1.843

2
Na -3.659 -1.277  0.378
Cl -6.778  1.355  1.982

2
Na -3.605  0.189 -0.776
Cl -5.966  1.045  0.546

2
Na -3.107  0.797 -0.933
Cl -6.596  2.236  0.697

2
Na -3.258  0.421  0.079
Cl -5.676  2.361  0.502

2
Na -2.820  0.813 -0.417
Cl -5.313  3.059  1.327

2
Na -3.280  0.703 -0.426
Cl -6.327  1.521  0.258

2
Na -4.295  0.659 -1.360
Cl -4.702  3.112 -0.457

2
Na -4.644 -0.516 -1.605
Cl -5.897  2.495 -0.011

2
Na -4.668  1.014 -1.883
Cl -5.174  2.398  0.105

2
Na -5.217  1.319 -1.375
Cl -4.209  3.405 -0.931

2
Na -5.080  3.376 -0.628
Cl -5.234  5.049 -0.080

2
Na -4.533  3.328  0.173
Cl -4.560  5.835 -0.122

2
Na -4.095  4.354  0.592
Cl -5.277  5.533 -0.093

2
Na -2.765  3.338  0.243
Cl -5.485  3.285  0.438

2
Na -3.904  3.310 -1.477
Cl -5.546  2.484  0.624

2
Na -5.508  1.630 -1.557
Cl -5.151  3.498  1.082

2
Na -6.553  0.986 -0.404
Cl -6.703  3.772  2.421

2
Na -6.281 -0.279  0.539
Cl -7.153  2.019  3.080

2
Na -5.028 -1.590  2.446
Cl -4.913  1.654  3.270

2
Na -5.763 -0.923  2.268
Cl -3.238  1.103  4.005

2
Na -5.092 -1.590  1.899
Cl -3.859  0.598  3.717

2
Na -3.801 -0.971  1.438
Cl -4.495  1.135  4.600

2
Na -4.475 -0.654  1.743
Cl -3.950  0.930  3.102

2
Na -3.102 -0.883  2.388
Cl -3.322  1.698  4.314

2
Na -2.984 -0.865  3.222
Cl -2.586  1.946  3.141

2
Na -2.452 -0.603  4.042
Cl -3.219  0.821  2.583

2
Na -2.754  1.172  3.092
Cl -2.355  1.502  1.942

2
Na -3.528  1.694  3.346
Cl -3.546  2.334  0.448

2
Na -3.971  2.246  4.156
Cl -2.732  2.213  0.504

2
Na -3.564  2.591  3.374
Cl -1.675  2.310  0.061

2
Na -1.757  2.534  2.734
Cl -1.397  3.043  0.391

2
Na -0.128  2.981  1.490
Cl -1.699  1.833 -0.104

2
Na  0.366  1.931  0.902
Cl -1.291  1.208  1.072

2
Na  0.756  1.884 -0.351
Cl -0.248  1.084  1.225

2
Na  0.843  0.856  0.320
Cl -0.593  2.604  1.589

2
Na  0.259  1.285 -0.766
Cl  0.682  2.222  2.199

2
Na -0.299  3.191 -1.080
Cl -1.111  3.131  0.489

2
Na -1.064  2.551  0.110
Cl -2.276  5.595  0.580

2
Na -0.202  2.161  1.970
Cl -1.467  5.290  1.493

2
Na -0.099  2.586  1.797
Cl -2.614  5.428  1.587

2
Na  0.713  3.538  1.619
Cl -1.510  5.590  3.134

2
Na  1.093  4.222  2.057
Cl -1.500  6.406  4.346

2
Na  1.169  3.537  2.352
Cl -1.192  6.905  3.648

2
Na  1.510  4.001  0.970
Cl -1.755  6.727  3.260

2
Na  0.449  4.598  2.000
Cl -0.389  7.012  3.429

2
Na  0.454  4.181  1.275
Cl  1.067  7.069  3.188

2
Na -0.073  4.794  1.168
Cl  1.392  7.221  2.616

2
Na  1.140  5.102 -0.281
Cl  1.613  6.792  2.062

2
Na  1.294  5.031 -0.401
Cl  2.077  6.376  0.616

2
Na  2.083  4.252  0.284
Cl  1.719  7.319  2.305

2
Na  2.123  5.186  0.145
Cl  2.450  7.946  2.104

2
Na  2.419  4.687 -0.358
Cl  1.581  7.374  0.430

2
Na  2.132  5.033  0.730
Cl  0.945  8.151  0.250

2
Na  2.692  5.572  1.360
Cl  1.183  8.131  0.597

2
Na  2.691  6.407  2.255
Cl  1.002  6.734  1.988

2
Na  2.722  7.659  3.391
Cl  0.510  8.729  0.666

2
Na  1.814  8.365  3.818
Cl  0.510  8.610  0.767

2
Na  1.239  7.459  4.119
Cl  1.722  8.814  1.237

2
Na  0.538  8.091  4.653
Cl  1.070  8.632  2.286

2
Na -0.021  8.148  3.764
Cl  0.139  8.762  0.250

2
Na  1.396  8.422  2.826
Cl  1.332  7.714  0.607

2
Na  3.136  7.515  1.187
Cl  1.695  7.044 -0.337

2
Na  2.641  8.420  1.488
Cl  3.856  8.040 -0.491

2
Na  2.277  8.358  1.627
Cl  4.324  8.093 -1.150

2
Na  3.291  9.540  1.019
Cl  5.083  7.401 -0.048

2
Na  5.513  9.527  1.022
Cl  5.696  7.639  1.048

2
Na  3.732  9.773 -0.049
Cl  5.136  8.495 -0.062

2
Na  3.491 -9.548 -0.110
Cl  4.403 -11.604 -0.330

2
Na  2.425  9.120  1.771
Cl  4.489  7.100  0.228

2
Na  2.866  9.930  0.556
Cl  5.152  6.728  0.029

2
Na  2.756  9.381 -0.780
Cl  4.977  6.649 -1.181

2
Na  2.926  8.025 -2.375
Cl  3.743  6.171 -1.862

2
Na  2.250  8.213 -2.309
Cl  2.581  6.706 -2.340

2
Na  2.182  9.286 -1.718
Cl  1.963  6.684 -1.209

2
Na  3.383  8.983 -1.571
Cl  3.517  6.332 -1.377

2
Na  4.274  8.378 -1.127
Cl  2.676  6.297 -2.180

2
Na  4.160  7.921 -0.215
Cl  2.666  7.308 -3.077

2
Na  2.869  8.437 -0.325
Cl  1.960  7.699 -3.261

2
Na  2.310 -9.738 -1.572
Cl  1.912 -12.257 -3.523

2
Na  1.707  9.983 -2.664
Cl  1.931  7.314 -4.260

2
Na  0.379  9.945 -2.475
Cl  3.096  6.881 -3.139

2
Na  0.773  9.912 -2.346
Cl  2.501  7.092 -2.845

2
Na  1.893 -9.501 -2.412
Cl  4.102 -12.646 -3.991

2
Na  1.957  9.401 -4.390
Cl  3.712  6.463 -2.760

2
Na  2.409  8.262 -3.466
Cl  3.188  7.637 -3.628

2
Na  2.882  7.658 -2.166
Cl  2.917  9.081 -3.657

2
Na  3.917  7.232 -2.001
Cl  3.064  7.729 -4.447

2
Na  1.999  7.038 -0.617
Cl  2.464  8.798 -3.121

2
Na  4.128  6.629 -0.836
Cl  2.690  7.772 -3.107

2
Na  3.603  8.217 -1.253
Cl  3.209  7.772 -2.251

2
Na  3.476  8.905 -0.811
Cl  2.971  7.368 -3.697

2
Na  4.652  8.632 -0.952
Cl  3.265  6.571 -4.111

2
Na  4.582  9.131 -1.332
Cl  4.226  6.889 -4.178

2
Na  4.371  8.820 -2.803
Cl  3.764  6.222 -4.962

2
Na  4.945  8.046 -3.856
Cl  2.597  6.376 -3.852

2
Na  5.090  8.731 -4.498
Cl  3.678  7.472 -3.601

2
Na  5.262  6.830 -5.590
Cl  3.289  7.735 -3.390

2
Na  4.925  6.061 -5.857
Cl  3.979  8.321 -4.072

2
Na  5.536  6.558 -5.708
Cl  3.760  7.446 -3.791

2
Na  3.565  8.184 -6.644
Cl  3.401  8.721 -3.774

2
Na  1.797  8.447 -5.923
Cl  4.530  8.689 -6.060

2
Na  0.696  8.164 -6.448
Cl  4.292 10.366 -5.302

2
Na  0.134  8.744 -4.616
Cl  3.660  9.544 -6.044

2
Na -1.000  9.076 -6.016
Cl  3.243  9.332 -7.114

2
Na -2.365  8.315 -5.858
Cl  3.247  8.300 -6.209

2
Na -1.079  7.888 -6.454
Cl  2.050  8.935 -7.446

2
Na -1.216  8.725 -6.829
Cl  2.500  9.513 -7.007

2
Na -1.581  8.953 -7.504
Cl  1.890  9.445 -7.096

2
Na -1.477  8.494 -6.015
Cl  1.775  7.431 -6.986

2
Na -0.555  7.062 -5.376
Cl  2.234  6.179 -7.098

2
Na  0.342  8.088 -5.628
Cl  2.082  7.734 -6.391

2
Na  0.061  6.551 -5.753
Cl  0.601  7.810 -7.666

2
Na -0.436  7.066 -5.485
Cl  0.951  8.322 -6.603

2
Na -0.266  7.110 -7.279
Cl  1.315  6.978 -6.435

2
Na -2.288  6.575 -6.706
Cl  1.703  5.971 -6.882

2
Na -2.130  4.677 -6.925
Cl  1.602  5.460 -8.332

2
Na -1.823  4.167 -6.715
Cl  0.491  6.499 -8.604

2
Na -0.642  4.402 -6.566
Cl -1.413  6.531 -8.672

2
Na -0.187  4.456 -5.601
Cl -0.773  5.104 -9.004

2
Na  0.832  4.649 -5.891
Cl -0.738  5.268 -7.506

2
Na  2.159  3.822 -7.839
Cl -1.317  4.497 -6.472

2
Na  1.434  4.195 -8.021
Cl -0.158  5.285 -7.069

2
Na  0.994  4.017 -7.885
Cl -0.926  3.803 -7.503

2
Na  0.319  5.859 -7.551
Cl -0.796  4.355 -6.481

2
Na -1.039  7.029 -6.590
Cl -2.040  5.670 -6.859

2
Na -2.228  8.151 -5.732
Cl -1.093  4.750 -6.359

2
Na -1.862  7.866 -6.676
Cl -0.457  4.883 -4.927

2
Na -1.181  6.928 -6.710
Cl -0.303  5.883 -4.851

2
Na -3.141  7.016 -5.885
Cl -0.104  6.693 -4.427

2
Na -3.080  5.951 -6.539
Cl -0.832  7.287 -2.883

2
Na -4.674  6.546 -4.593
Cl -2.221  8.475 -2.092

2
Na -3.553  6.551 -4.065
Cl -1.428  7.931 -3.878

2
Na -2.023  6.960 -4.985
Cl -1.981  7.888 -3.942

2
Na -2.931  6.779 -3.960
Cl -2.365  8.651 -4.034

2
Na -1.524  6.445 -5.454
Cl -3.080  8.220 -5.866

2
Na -0.490  7.011 -5.570
Cl -2.865  8.854 -5.520

2
Na -0.088  6.992 -4.849
Cl -2.288  9.042 -4.429

2
Na -1.009  6.845 -3.847
Cl -2.200  8.837 -4.005

2
Na -0.633  6.999 -2.683
Cl -1.280  9.737 -4.470

2
Na -1.639  8.130 -1.461
Cl -2.909  8.673 -3.710

2
Na -0.859  9.549 -2.066
Cl -0.412  9.946 -3.430

2
Na -2.137  8.571 -1.704
Cl -0.601 10.293 -3.600

2
Na -2.562  8.657 -1.416
Cl  0.372  9.075 -3.681

2
Na -1.982  9.900 -0.216
Cl  0.102 10.308 -3.661

2
Na -2.466  9.600 -0.584
Cl  0.722  9.662 -4.085

2
Na -2.533  9.335 -2.000
Cl -0.035  8.955 -5.356

2
Na -1.646  9.012 -2.722
Cl -0.389  9.682 -5.154

2
Na -2.489  9.780 -3.637
Cl -2.153 10.184 -5.333

2
Na -2.909 -9.347 -2.560
Cl -2.245 -9.005 -5.569

2
Na -2.467 -9.467 -2.839
Cl -3.382 -10.265 -5.489

2
Na -2.023 -9.591 -2.653
Cl -4.033 -9.986 -4.866

2
Na -2.946  9.440 -0.857
Cl -3.197  9.447 -5.042

2
Na -3.048 -9.159 -1.438
Cl -4.261 -9.697 -4.269

2
Na -3.524 -8.894 -2.332
Cl -4.063 -9.354 -4.422

2
Na -5.179 -8.916 -1.690
Cl -4.781 -8.839 -3.657

2
Na -3.523 -9.569 -0.919
Cl -5.707 -8.483 -3.592

2
Na -4.702  9.996 -2.116
Cl -7.565 10.566 -1.221

2
Na -5.841  8.877 -0.494
Cl -8.588  9.882  0.060

2
Na -7.364  8.583 -0.324
Cl -6.812 10.958 -0.479

2
Na -7.846  8.962  0.746
Cl -7.180 12.050  0.308

2
Na -8.751  8.738  1.732
Cl -6.155 10.721  0.683

2
Na -8.729  9.293  1.581
Cl -5.824 10.231  1.358

2
Na -8.516 -9.727  1.678
Cl -6.393 -9.037  2.141

2
Na -6.822  9.332 -0.101
Cl -6.710  9.487  3.618

2
Na -4.787  9.328 -0.002
Cl -5.505  8.954  3.830

2
Na -5.048  8.933  1.256
Cl -4.674  9.295  3.075

2
Na -6.463  9.599  1.079
Cl -5.660 10.281  2.760

2
Na -5.595 -9.365  2.584
Cl -4.501 -10.267  3.093

2
Na -6.808 -9.372  2.723
Cl -3.629 -8.533  3.767

2
Na -6.350  9.482  3.683
Cl -4.365 11.344  3.558

2
Na -5.259  9.764  4.722
Cl -4.606 11.177  4.642

2
Na -3.042  8.763  4.341
Cl -3.411 11.122  6.500

2
Na -2.471  7.910  5.236
Cl -3.531 11.576  5.991

2
Na -5.147  7.602  5.402
Cl -3.725 10.786  5.590

2
Na -3.024  7.800  5.083
Cl -2.507 11.188  6.740

2
Na -3.476  8.670  5.663
Cl -2.342  9.862  5.687

2
Na -2.752  8.795  5.798
Cl -1.539  9.583  5.504

2
Na -1.762  8.052  6.591
Cl -1.397  8.289  4.608

2
Na -1.134  8.673  6.452
Cl -0.695  9.012  5.079

2
Na -0.302  9.069  6.534
Cl -1.601  9.971  4.133

2
Na -0.160  9.697  6.034
Cl -1.937  9.982  4.250

2
Na  0.558 -9.714  5.049
Cl -2.233 -11.735  5.268

2
Na  1.055  8.730  4.871
Cl -2.030  9.447  5.352

2
Na -1.304  9.204  4.721
Cl -3.229  8.075  5.049

2
Na -1.703  9.800  4.059
Cl -3.795  7.976  6.383

2
Na -1.097  9.061  4.762
Cl -2.168  7.354  5.685

2
Na -0.641 -9.520  6.158
Cl -1.748 -13.427  4.658

2
Na -1.250  8.689  6.086
Cl -2.194  6.285  4.604

2
Na -2.905  8.173  5.602
Cl -2.304  5.862  5.544

2
Na -3.732  8.225  6.546
Cl -1.750  6.335  6.302

2
Na -3.928  6.518  8.406
Cl -2.148  5.507  6.119

2
Na -4.862  6.936  6.458
Cl -2.500  5.596  5.745

2
Na -3.810  6.932  7.974
Cl -3.003  5.257  5.584

2
Na -4.005  6.242  6.475
Cl -1.070  4.669  5.679

2
Na -3.222  5.508  5.704
Cl -2.479  5.173  6.629

2
Na -2.477  5.200  5.137
Cl -1.866  4.507  6.716

2
Na -1.397  4.765  4.565
Cl -0.389  5.768  7.206

2
Na -1.478  5.061  5.889
Cl -1.888  6.692  7.847

2
Na -2.705  4.971  5.417
Cl -1.446  5.196  7.648

2
Na -2.441  3.999  5.760
Cl -1.670  5.426  6.287

2
Na -2.132  3.650  6.391
Cl -2.548  4.491  8.252

2
Na -2.217  2.246  7.101
Cl -2.150  4.725  7.143

2
Na -2.935  4.433  6.616
Cl -0.913  5.113  7.120

2
Na -1.452  2.656  7.308
Cl -0.342  4.997  8.072

2
Na -0.497  2.934  6.662
Cl -0.203  5.508  8.452

2
Na -0.353  3.631  6.280
Cl -0.472  5.208  7.571

2
Na -0.555  3.607  8.531
Cl -0.000  6.557  7.693

2
Na -0.472  4.250  7.857
Cl -0.337  6.980  8.700

2
Na -0.908  4.249  7.223
Cl -0.462  6.697  8.861

2
Na  0.336  4.230  7.571
Cl -0.450  7.441  9.536

2
Na  1.327  4.785  6.900
Cl  0.977  6.123  9.576

2
Na  0.938  4.889  8.360
Cl  1.680  5.145  8.787

2
Na  0.994  4.503  6.512
Cl  1.932  5.987  7.290

2
Na -0.458  6.086  6.577
Cl -0.976  5.596  8.342

2
Na  0.150  5.997  7.323
Cl  1.263  5.134  7.669

2
Na  1.020  5.946  6.978
Cl  1.237  4.171  7.837

2
Na  1.043  7.425  7.449
Cl  0.612  5.419  9.062

2
Na  0.572  6.542  7.098
Cl  2.133  4.733  8.238

2
Na  0.193  5.935  7.590
Cl  2.489  5.527  7.550

2
Na -0.534  7.083  6.065
Cl  2.203  6.934  8.708

2
Na -0.456  6.342  6.175
Cl  3.153  6.704  7.958

2
Na  0.548  6.892  7.095
Cl  4.532  7.448  7.913

2
Na  1.412  6.327  7.179
Cl  4.796  7.664  6.930

2
Na  1.359  5.870  7.238
Cl  3.245  5.550  6.937

2
Na  0.571  6.612  7.805
Cl  3.107  6.681  6.674

2
Na  0.149  6.471  6.486
Cl  2.867  6.259  7.053

2
Na  0.417  6.070  5.437
Cl  1.390  5.102  6.557

2
Na -1.454  7.157  5.803
Cl  1.267  7.975  5.659

2
Na -1.683  8.594  6.288
Cl  1.604  8.431  5.396

2
Na -2.347  9.594  5.703
Cl  1.221  9.395  5.869

2
Na -1.269  9.646  6.488
Cl  1.726  9.454  4.972

2
Na -1.133 -9.973  6.214
Cl -0.439 -11.025  4.287

2
Na -0.636 -9.468  6.746
Cl -1.582 -11.587  4.327

2
Na -0.933 -8.303  6.376
Cl -1.637 -11.911  5.388

2
Na -2.460 -9.997  5.046
Cl -1.216 -13.145  6.066

2
Na -2.848  8.511  3.857
Cl -1.105  7.104  5.022

2
Na -2.310  9.403  3.769
Cl -0.186  6.741  5.075

2
Na -2.985  8.934  2.946
Cl  0.928  7.613  4.655

2
Na -2.663  6.737  2.656
Cl  0.463  7.599  3.973

2
Na -1.152  5.802  3.439
Cl  0.103  7.138  4.933

2
Na -1.500  5.612  3.984
Cl  0.009  6.632  5.728

2
Na -1.219  4.778  3.216
Cl  1.819  5.568  5.600

2
Na -0.791  5.519  2.493
Cl  1.377  6.211  6.121

2
Na -0.445  5.142  1.628
Cl  1.575  5.595  4.559

2
Na -1.102  5.652  2.651
Cl  1.726  6.412  4.368

2
Na -0.938  6.567  3.754
Cl  3.169  6.443  3.009

2
Na -1.392  7.518  4.451
Cl  2.246  6.642  3.156

2
Na -0.891  7.179  4.360
Cl  1.111  5.470  3.076

2
Na -1.359  6.677  4.334
Cl  0.658  5.827  4.956

2
Na -1.405  5.410  2.927
Cl  0.982  5.396  3.882

2
Na -0.536  4.297  3.744
Cl  1.825  4.620  3.432

2
Na -0.763  3.827  2.490
Cl  1.208  3.639  3.767

2
Na  0.491  3.653  4.449
Cl  2.477  4.205  3.991

2
Na  1.536  3.411  5.245
Cl  1.985  3.474  2.926

2
Na  2.174  3.024  4.198
Cl  4.529  4.306  2.880

2
Na  0.947  1.975  4.102
Cl  4.041  3.788  4.350

2
Na  2.550  2.785  4.461
Cl  4.353  3.442  3.768

2
Na  3.696  1.463  5.930
Cl  2.963  3.000  3.332

2
Na  3.241  2.025  5.762
Cl  2.049  1.588  4.287

2
Na  2.458  0.546  6.099
Cl  1.023  2.092  5.081

2
Na  1.694  1.119  4.241
Cl  1.752  2.325  4.620

2
Na  1.524  0.425  3.760
Cl  1.586  2.536  4.150

2
Na  2.200 -0.053  5.525
Cl  3.223  2.571  4.361

2
Na  1.031  0.453  5.410
Cl  3.536  1.845  4.919

2
Na  1.497  0.255  4.149
Cl  2.963  2.299  6.141

2
Na  1.238  0.705  3.829
Cl  3.560  0.186  5.909

2
Na  1.323  1.874  3.873
Cl  4.267  0.760  4.378

2
Na  2.302  2.578  3.692
Cl  3.018 -0.212  4.306

2
Na  2.368  2.469  2.723
Cl  3.346  1.300  3.154

2
Na  3.930  2.847  2.865
Cl  4.367  0.392  3.526

2
Na  3.213  2.311  2.729
Cl  3.951  0.041  3.680

2
Na  3.383  1.997  3.634
Cl  4.522  0.446  3.013

2
Na  2.947  0.973  3.791
Cl  4.809  1.067  2.771

2
Na  3.935  3.738  3.260
Cl  5.422  2.273  3.071

2
Na  3.807  3.580  2.218
Cl  4.100  1.182  3.733

2
Na  3.384  2.969  3.581
Cl  4.420  1.667  3.121

2
Na  3.596  1.696  4.804
Cl  4.466  0.724  3.041

2
Na  3.181  1.929  4.938
Cl  3.309  1.073  3.745

2
Na  3.210  4.260  3.539
Cl  3.598  1.053  4.000

2
Na  1.854  3.557  3.760
Cl  3.430  1.422  3.473

2
Na  2.159  2.739  4.295
Cl  3.442  3.021  2.822

2
Na  0.968  2.508  2.538
Cl  3.210  3.699  1.898

2
Na  1.270  2.013  2.712
Cl  2.464  3.536 -0.502

2
Na  1.224  2.822  2.175
Cl  2.425  3.761  0.657

2
Na  1.735  2.919  2.009
Cl  1.109  3.710  1.022

2
Na  1.296  2.781  2.152
Cl  2.158  2.043  0.037

2
Na  2.433  3.235  2.943
Cl  1.426  3.238  0.412

2
Na  1.777  3.089  2.089
Cl  1.646  3.135  0.122

2
Na  1.908  3.605  3.612
Cl  0.940  4.005 -0.287

2
Na  2.167  2.171  4.091
Cl  0.932  3.267  0.292

2
Na  0.915  3.054  2.763
Cl  1.150  5.238  0.279

2
Na  0.842  2.896  1.979
Cl  1.556  5.651  1.567

2
Na  2.202  3.550  2.449
Cl  1.786  5.294  1.064

2
Na  2.550  3.583  2.709
Cl  1.817  5.807  2.105

2
Na  2.043  3.498  1.099
Cl  3.630  4.526  1.105

2
Na  1.530  3.772 -1.051
Cl  4.918  5.557  0.135

2
Na  2.432  5.242 -0.030
Cl  5.270  5.249 -1.088

2
Na  3.148  5.449 -0.776
Cl  3.875  3.478 -3.080

2
Na  2.543  4.648 -0.457
Cl  4.787  3.987 -2.971

2
Na  4.394  3.359 -1.446
Cl  4.820  4.399 -3.473

2
Na  4.668  2.530 -1.287
Cl  2.558  4.280 -3.637

2
Na  4.509  2.078 -2.346
Cl  2.365  4.509 -2.351

2
Na  3.550  2.430 -4.174
Cl  1.534  4.879 -1.499

2
Na  2.790  3.053 -3.346
Cl  1.051  5.995 -2.754

2
Na  1.065  3.655 -2.176
Cl  1.984  5.218 -1.918

2
Na  2.311  3.654 -2.047
Cl  1.125  5.482 -0.793

2
Na  2.268  4.162 -1.372
Cl  0.407  4.102 -0.447

2
Na  1.933  3.045 -1.929
Cl  2.037  5.453 -0.293

2
Na  0.939  3.093 -2.604
Cl  2.886  4.815 -0.586

2
Na  1.181  3.352 -2.570
Cl  4.228  5.683 -1.870

2
Na  1.263  4.020 -2.011
Cl  3.991  5.480 -2.320

2
Na  1.834  4.290 -1.491
Cl  3.752  5.432 -1.077

2
Na  1.547  3.917 -0.653
Cl  2.875  5.955 -2.630

2
Na  2.975  4.112 -2.114
Cl  2.607  5.718 -3.038

2
Na  2.586  5.457 -1.817
Cl  1.245  5.562 -3.755

2
Na  2.718  4.544 -1.030
Cl  0.320  6.452 -2.707

2
Na  3.121  5.130 -0.480
Cl  1.621  6.042 -2.831

2
Na  4.261  4.874 -0.400
Cl  2.243  6.613 -2.318

2
Na  4.477  4.271 -1.708
Cl  3.497  7.270 -3.719

2
Na  4.460  5.102 -1.175
Cl  2.709  6.175 -3.787

2
Na  4.367  5.514 -1.760
Cl  3.114  6.603 -4.114

2
Na  4.446  4.899 -1.471
Cl  3.474  7.870 -3.125

2
Na  4.974  5.210 -1.462
Cl  2.700  8.462 -0.522

2
Na  2.748  5.601 -1.299
Cl  3.622  7.804 -0.578

2
Na  2.736  5.264 -1.354
Cl  3.395  7.923 -1.228

2
Na  3.042  5.698 -0.179
Cl  4.262  8.017 -0.795

2
Na  4.203  5.366  0.056
Cl  3.447  7.971 -1.041

2
Na  3.570  7.543 -0.831
Cl  5.473  7.333 -2.799

2
Na  3.921  7.255 -0.840
Cl  5.055  6.941 -3.811

2
Na  3.232  6.535 -1.060
Cl  4.554  7.036 -1.842

2
Na  2.723  6.353 -1.363
Cl  4.378  6.682 -1.729

2
Na  1.650  4.961 -2.170
Cl  2.702  6.848 -2.495

2
Na  2.037  5.566 -2.617
Cl  0.850  5.422 -3.380

2
Na  2.049  4.344 -0.990
Cl  0.477  3.652 -3.650

2
Na  1.768  4.054 -0.233
Cl  0.732  2.987 -3.224

2
Na  1.767  3.150 -0.969
Cl  1.667  3.271 -3.221

2
Na  2.291  3.441 -1.584
Cl  2.880  1.589 -3.707

2
Na  1.421  2.625 -0.494
Cl  2.345  1.914 -3.589

2
Na  1.261  2.535  0.148
Cl  2.066  1.688 -4.129

2
Na  2.662  3.207 -0.690
Cl  1.787  3.130 -4.363

2
Na  1.200  3.942 -1.443
Cl  0.798  2.570 -4.358

2
Na -0.290  2.700 -0.510
Cl  0.909  4.051 -3.009

2
Na  0.087  2.686 -1.051
Cl  1.481  5.220 -2.838

2
Na  0.485  2.674 -2.045
Cl  1.972  4.756 -3.635

2
Na  1.002  2.593 -3.888
Cl  3.130  2.943 -1.883

2
Na  0.312  4.033 -4.498
Cl  2.059  3.114 -3.448

2
Na  0.079  3.498 -4.290
Cl  2.249  3.143 -2.279

2
Na -0.122  2.583 -3.926
Cl  1.869  1.818 -1.883

2
Na  0.330  1.919 -4.838
Cl  1.825  0.944 -2.574

2
Na  1.398  0.895 -3.876
Cl  1.199  0.143 -1.976

2
Na  2.204  1.035 -4.843
Cl  1.735  1.231 -1.983

2
Na  0.321  1.678 -4.422
Cl  1.506  1.582 -1.582

2
Na -0.341  0.594 -4.539
Cl  2.350  1.700 -2.945

2
Na  1.008  1.155 -5.734
Cl  2.657  1.938 -2.606

2
Na  1.957  1.092 -5.348
Cl  1.270  0.089 -2.450

2
Na  2.804  1.751 -4.645
Cl  0.176  0.699 -1.846

2
Na  1.221  1.508 -5.125
Cl  1.249  0.481 -2.195

2
Na  1.603  0.793 -4.812
Cl  1.399  0.849 -3.539

2
Na  0.248  1.940 -5.104
Cl  1.437 -0.098 -3.472

2
Na -0.001  2.113 -5.574
Cl -0.885 -0.494 -5.552

2
Na -0.295  2.545 -5.461
Cl -0.115 -0.563 -4.814

2
Na -0.308  2.448 -5.406
Cl -2.079  1.087 -2.204

2
Na -0.185  3.309 -5.368
Cl -1.078  1.874 -2.413

2
Na  0.049  4.067 -4.795
Cl -1.101  2.831 -4.193

2
Na  0.506  4.369 -3.207
Cl -2.056  2.981 -4.003

2
Na  0.237  3.877 -3.437
Cl -2.301  3.280 -4.202

2
Na  1.096  4.915 -3.632
Cl -3.015  3.782 -3.216

2
Na -0.086  6.277 -4.230
Cl -3.021  4.098 -2.868

2
Na -1.079  5.844 -5.243
Cl -2.868  4.924 -2.874

2
Na -0.813  5.862 -6.340
Cl -1.542  5.840 -3.303

2
Na -1.268  7.061 -5.224
Cl -1.271  5.679 -3.434

2
Na -0.242  6.988 -5.874
Cl -1.774  6.393 -3.674

2
Na -0.248  7.396 -6.018
Cl -0.642  7.779 -3.304

2
Na -0.581  5.594 -4.536
Cl -1.330  7.854 -3.872

2
Na -0.775  4.943 -4.193
Cl -1.055  7.688 -4.191

2
Na -0.114  5.078 -3.953
Cl -0.866  7.767 -3.181

2
Na -0.645  4.799 -4.602
Cl -1.457  8.117 -3.815

2
Na -0.133  5.833 -3.431
Cl -1.661  8.101 -3.971

2
Na -1.108  6.655 -3.388
Cl -1.764  8.943 -3.570

2
Na -1.838  6.524 -2.907
Cl -2.089  9.065 -4.193

2
Na -1.338  5.444 -3.556
Cl -3.425  8.504 -3.015

2
Na -1.568  5.183 -3.999
Cl -2.882  7.923 -2.329

2
Na -2.108  6.247 -3.557
Cl -1.033  7.808 -3.552

2
Na -1.308  6.886 -3.070
Cl -0.597  4.585 -4.548

2
Na -1.570  7.443 -3.441
Cl  0.303  4.719 -5.095

2
Na -1.069  6.262 -3.901
Cl -1.262  3.589 -5.093

2
Na -0.569  5.880 -3.441
Cl -2.270  3.745 -4.194

2
Na -1.328  4.446 -1.837
Cl -0.940  3.854 -5.454

2
Na -1.258  3.591 -2.157
Cl -1.201  5.268 -5.164

2
Na -1.176  2.686 -3.241
Cl  0.850  5.087 -3.640

2
Na -1.168  2.640 -2.784
Cl  1.870  3.978 -3.634

2
Na -1.810  2.654 -2.084
Cl  1.307  3.301 -3.712

2
Na  0.005  2.622 -2.561
Cl  0.402  3.655 -4.791

2
Na -0.455  2.570 -2.596
Cl -0.278  3.975 -4.966

2
Na  0.809  3.084 -1.789
Cl -0.275  2.998 -4.976

2
Na  1.770  1.388 -3.660
Cl  0.039  3.251 -5.041

2
Na  0.819  1.253 -4.342
Cl -0.871  3.009 -5.105

2
Na -0.810  1.862 -2.726
Cl -1.015  0.988 -5.125

2
Na  0.316  2.578 -2.746
Cl -1.053  0.605 -4.442

2
Na  0.239  2.633 -1.930
Cl -2.158 -0.103 -4.610

2
Na  0.992  1.533 -2.063
Cl -2.654  1.366 -5.399

2
Na -0.187  2.152 -1.552
Cl -2.401  0.079 -4.264

2
Na -0.991  0.769 -1.948
Cl -1.709  0.409 -3.617

2
Na -1.902  0.549 -0.444
Cl -0.849  0.963 -3.084

2
Na -0.419  1.492 -0.716
Cl -0.103  1.757 -1.786

2
Na -0.507  0.666 -1.264
Cl -1.800  2.173 -2.880

2
Na -1.649 -0.454 -1.924
Cl -1.802  0.411 -4.530

2
Na -1.124 -0.986 -1.846
Cl -1.348  0.187 -3.291

2
Na -0.135  0.544 -2.324
Cl -1.358  0.901 -2.519

2
Na  0.106  0.493 -3.017
Cl -2.528  0.930 -1.226

2
Na  0.028  0.391 -3.891
Cl -1.353  1.653 -1.867

2
Na  1.067  0.354 -3.471
Cl -0.691  0.305 -1.996

2
Na  0.358  1.010 -3.723
Cl -0.962 -0.422 -2.570

2
Na -0.280  0.042 -4.573
Cl -1.510 -0.206 -1.998

2
Na -2.026 -0.843 -5.590
Cl -0.605 -0.031 -1.448

2
Na -1.620 -1.007 -6.451
Cl -1.198  0.562 -3.010

2
Na -1.575 -1.245 -6.154
Cl -1.834 -2.182 -3.557

2
Na -1.485 -0.319 -5.228
Cl -1.620 -2.143 -4.353

2
Na -0.650 -2.123 -4.580
Cl  0.189 -1.349 -2.962

2
Na  0.729 -3.521 -4.651
Cl -0.555 -2.073 -3.319

2
Na -0.909 -2.775 -4.399
Cl -0.960 -2.478 -2.410

2
Na -0.984 -3.321 -4.799
Cl -0.795 -2.686 -4.740

2
Na -2.427 -1.404 -4.441
Cl  0.785 -1.092 -4.750

2
Na -1.134 -1.433 -4.940
Cl  0.732 -0.971 -4.157

2
Na -1.469 -2.572 -4.563
Cl  0.154 -1.916 -3.297

2
Na -1.319 -3.019 -5.542
Cl  0.490 -1.019 -3.299

2
Na -1.093 -2.137 -5.458
Cl  1.332 -1.119 -3.680

2
Na -2.112 -1.477 -4.181
Cl  0.399 -1.735 -4.577

2
Na -0.685 -2.578 -4.877
Cl -0.364 -1.802 -4.314

2
Na  0.546 -3.326 -4.551
Cl -0.598 -1.093 -5.187

2
Na -0.141 -4.041 -3.474
Cl  0.771 -1.750 -4.903

2
Na  1.109 -5.040 -5.495
Cl  0.005 -3.884 -5.971

2
Na -0.550 -5.918 -5.934
Cl -1.501 -4.512 -3.483

2
Na -1.770 -7.629 -4.625
Cl -2.851 -4.008 -3.420

2
Na -0.818 -7.185 -4.934
Cl -0.970 -4.276 -2.929

2
Na -0.726 -6.784 -5.727
Cl -1.627 -3.548 -2.061

2
Na -0.734 -5.640 -5.436
Cl -1.211 -3.042 -2.801

2
Na -1.867 -3.715 -4.879
Cl -1.262 -1.828 -2.451

2
Na -0.801 -1.806 -5.104
Cl -1.838 -2.442 -3.601

2
Na -0.130 -2.077 -5.407
Cl -1.498 -3.436 -4.421

2
Na -1.139 -1.409 -5.756
Cl -1.703 -3.985 -4.781

2
Na -1.165 -2.399 -7.164
Cl  0.226 -3.111 -5.283

2
Na -2.817 -1.516 -7.412
Cl -0.122 -2.632 -4.678

2
Na -0.958 -2.961 -8.833
Cl -0.004 -3.468 -6.042

2
Na -0.091 -3.329 -9.243
Cl -0.678 -2.520 -5.424

2
Na -1.328 -1.503 -8.754
Cl -0.072 -2.665 -7.480

2
Na -1.911 -1.372  9.818
Cl -0.556 -3.996 12.415

2
Na -0.256 -1.333  9.006
Cl -1.357 -2.491 11.273

2
Na -0.945 -1.269  9.470
Cl -2.630 -2.470 11.771

2
Na -0.721 -2.703 -9.494
Cl -2.733 -0.862 -9.293

2
Na -1.964 -2.572 -9.861
Cl -2.848 -1.806 -9.451

2
Na -3.386 -2.917 -9.800
Cl -2.486 -1.774 -10.577

2
Na -4.042 -0.660  9.386
Cl -1.720 -2.113  8.659

2
Na -3.536 -1.080  9.917
Cl -1.506 -1.969  8.405

2
Na -3.501 -2.177 -10.000
Cl -1.867 -2.228 -11.982

2
Na -2.735 -3.468  9.636
Cl -3.515 -1.223  8.309

2
Na -2.346 -2.208  9.050
Cl -4.621  0.762  9.249

2
Na -1.673 -1.751  8.923
Cl -4.184  0.570  7.995

2
Na -1.468 -0.933  8.834
Cl -2.789  0.211  7.517

2
Na -1.451 -0.768  8.610
Cl -2.501 -0.297  7.780

2
Na -1.077  0.659  9.772
Cl -2.066 -0.020  7.035

2
Na -1.940 -0.245  9.819
Cl -2.686 -0.773  7.116

2
Na -3.271  0.680  9.766
Cl -4.376 -1.023  7.149

2
Na -3.263  0.974  7.951
Cl -3.997 -1.041  7.213

2
Na -2.958 -1.820  8.479
Cl -6.110 -1.816  6.735

2
Na -3.080 -2.279 -9.985
Cl -3.672 -2.404 -13.748

2
Na -4.460 -2.962  9.643
Cl -3.877 -1.890  7.583

2
Na -5.732 -3.716  8.698
Cl -2.844 -1.956  7.140

2
Na -5.034 -3.542  8.429
Cl -2.825 -3.717  6.970

2
Na -3.119 -4.635  8.066
Cl -2.151 -2.649  8.125

2
Na -3.141 -5.097  8.477
Cl -1.840 -4.226  7.063

2
Na -3.032 -4.769  9.888
Cl -2.951 -3.180  6.490

2
Na -2.105 -5.895  9.489
Cl -3.000 -3.479  6.451

2
Na -2.962 -4.413  7.434
Cl -3.434 -3.237  6.047

2
Na -1.745 -4.445  7.737
Cl -2.875 -3.217  5.890

2
Na -1.706 -3.243  7.239
Cl -2.226 -2.647  6.983

2
Na -1.705 -3.498  6.932
Cl -2.986 -2.270  7.185

2
Na -1.612 -2.816  7.357
Cl -2.265 -2.798  7.385

2
Na -0.477 -1.647  7.438
Cl -3.500 -2.923  7.024

2
Na -1.571 -2.147  9.848
Cl -2.428 -2.260  6.414

2
Na -2.257 -1.882 -9.976
Cl -3.525 -2.652 -12.753

2
Na -3.376 -1.840 -9.433
Cl -2.394 -2.160 -11.071

2
Na -2.510 -2.750  8.696
Cl -2.118 -1.892  7.748

2
Na -1.865 -1.728  9.339
Cl -1.079 -3.198  7.174

2
Na -1.870 -1.730  8.564
Cl -2.339 -3.918  7.317

2
Na -1.469 -3.143  9.605
Cl -2.200 -4.171  6.911

2
Na -0.346 -2.818  8.741
Cl -2.119 -2.638  7.717

2
Na  1.923 -3.857  8.953
Cl -1.631 -2.892  7.773

2
Na  1.571 -3.157 -9.978
Cl -1.500 -2.199 -13.154

2
Na  1.385 -2.001  9.666
Cl -1.980 -1.962  6.252

2
Na  1.092 -1.435  9.809
Cl -2.068 -2.139  6.728

2
Na -0.799 -0.608  9.480
Cl -0.628 -2.465  7.682

2
Na -1.451 -1.160  9.305
Cl -2.270 -3.715  7.100

2
Na -2.457 -2.286  8.943
Cl -3.162 -3.471  7.986

2
Na -2.668 -2.994  9.219
Cl -2.385 -3.134  8.908

2
Na -3.381 -1.925  8.690
Cl -0.065 -2.861  9.474

2
Na -2.639 -0.229  9.146
Cl -0.022 -2.845  9.542

2
Na -1.387 -1.126  9.449
Cl -1.346 -2.507  9.529

2
Na -0.930 -1.374  8.264
Cl -2.766 -2.154  8.612

2
Na -0.625  0.366  8.559
Cl -2.173 -4.015  9.496

2
Na -0.723 -0.543  9.706
Cl -1.142 -3.474  9.434

2
Na -1.613 -0.957  8.880
Cl -1.775 -1.827  9.961

2
Na -0.730  0.145  8.001
Cl -1.542 -1.782  9.923

2
Na -1.221  0.624  8.423
Cl -1.770 -2.408  9.543

2
Na -1.463  0.148 -9.945
Cl -3.151 -2.580 -10.667

2
Na -3.465  0.643  9.920
Cl -3.649 -3.478  9.783

2
Na -4.265  0.244 -9.565
Cl -3.283 -3.673 -7.876

2
Na -4.356 -0.208 -9.189
Cl -4.935 -3.116 -6.721

2
Na -3.996  0.038 -9.463
Cl -5.347 -2.911 -7.612

2
Na -5.548 -0.147 -8.346
Cl -6.888 -1.401 -8.124

2
Na -5.810  0.283 -8.660
Cl -6.246 -0.528 -9.028

2
Na -5.459  0.491 -8.674
Cl -6.904 -1.546 -9.773

2
Na -5.490  0.564 -9.174
Cl -6.304 -1.460 -9.845

2
Na -4.457  0.165 -9.479
Cl -5.984  0.022 -11.132

2
Na -4.728  1.137 -8.920
Cl -4.926  1.608 -10.824

2
Na -3.778 -0.554 -7.635
Cl -4.704  0.505 -9.975

2
Na -3.525 -0.621 -7.039
Cl -4.223  0.565 -9.820

2
Na -3.380 -0.472 -8.497
Cl -4.487 -1.846 -9.328

2
Na -3.553 -0.682 -9.680
Cl -4.534 -1.885 -9.404

2
Na -4.778 -1.690  9.799
Cl -2.764 -1.209  9.183

2
Na -3.247 -1.212  9.935
Cl -1.110 -0.864  7.971

2
Na -3.238 -0.212 -9.449
Cl -1.542 -1.751 -11.253

2
Na -3.237 -0.963 -9.301
Cl -2.489 -1.380 -11.821

2
Na -2.856 -0.687  9.228
Cl -2.420 -0.578  7.588

2
Na -4.491  0.140  8.392
Cl -3.728 -0.607  8.299

2
Na -6.024 -0.263  9.814
Cl -4.051 -2.058  7.712

2
Na -6.099 -1.350  8.125
Cl -3.181 -2.466  6.554

2
Na -5.954 -1.100  7.377
Cl -2.597 -1.234  7.507

2
Na -5.179 -1.489  6.330
Cl -2.591 -2.323  6.667

2
Na -3.827 -1.480  5.901
Cl -1.316 -2.710  6.975

2
Na -3.659 -2.784  6.256
Cl -2.798 -3.413  8.727

2
Na -4.786 -3.154  5.898
Cl -3.588 -3.369  9.526

2
Na -4.137 -3.677  6.858
Cl -4.036 -4.418  9.498

2
Na -3.583 -3.708  6.251
Cl -4.264 -2.573  8.920

2
Na -4.042 -4.167  6.138
Cl -3.431 -4.407  7.646

2
Na -3.821 -3.349  6.837
Cl -3.963 -5.236  7.654

2
Na -2.695 -3.945  5.699
Cl -4.248 -5.172  6.242

2
Na -2.546 -3.540  6.519
Cl -3.580 -5.150  5.710

2
Na -2.156 -3.102  5.277
Cl -1.664 -4.719  6.063

2
Na -2.274 -2.647  5.460
Cl -1.596 -4.544  5.484

2
Na -1.414 -2.603  5.402
Cl -2.525 -4.484  5.712

2
Na -1.346 -3.238  6.266
Cl -2.922 -5.305  7.123

2
Na -0.488 -2.904  6.448
Cl -3.084 -4.293  7.429

2
Na -0.852 -3.172  7.496
Cl -2.757 -2.629  8.742

2
Na -1.589 -3.456  7.355
Cl -1.702 -2.960  8.296

2
Na -1.123 -4.080  6.652
Cl -1.005 -2.005  9.186

2
Na -2.006 -3.586  6.977
Cl -1.308 -1.505  9.757

2
Na -1.038 -4.953  6.646
Cl -1.314 -3.231 10.041

2
Na -3.367 -5.204  6.429
Cl -1.989 -3.033  8.770

2
Na -4.037 -3.411  7.582
Cl -1.679 -2.090  8.006

2
Na -5.243 -4.148  8.552
Cl -3.174 -3.914  9.144

2
Na -4.403 -3.795  8.292
Cl -2.844 -4.340  8.931

2
Na -4.031 -2.942  7.058
Cl -3.114 -3.487  8.899

2
Na -2.728 -2.476  7.640
Cl -4.301 -4.611  9.275

2
Na -2.798 -2.808  7.849
Cl -4.523 -4.145  9.523

2
Na -2.918 -2.339  7.688
Cl -3.876 -4.710  9.865

2
Na -3.404 -2.485  8.075
Cl -3.556 -5.945  9.631

2
Na -3.581 -2.996  6.095
Cl -3.539 -5.302  8.962

2
Na -4.312 -3.190  6.823
Cl -2.920 -4.892  9.289

2
Na -3.869 -3.794  5.369
Cl -3.499 -4.012  8.651

2
Na -2.523 -3.558  5.804
Cl -4.053 -3.398  8.181

2
Na -2.707 -3.549  6.306
Cl -4.695 -3.624  9.054

2
Na -3.523 -2.362  7.273
Cl -5.144 -3.397  9.811

2
Na -3.359 -1.854  8.934
Cl -4.843 -3.886 10.729

2
Na -3.329 -2.197  9.539
Cl -4.160 -3.922 10.295

2
Na -4.240 -3.221  9.814
Cl -3.590 -4.726 11.837

2
Na -3.532 -3.698 -9.895
Cl -3.948 -5.280 -8.565

2
Na -2.702 -4.450  9.727
Cl -3.115 -4.845 12.276

2
Na -2.138 -4.745 -8.778
Cl -1.699 -3.532 -8.764

2
Na -1.031 -6.359 -7.477
Cl -0.837 -4.117 -8.245

2
Na  0.309 -5.025 -9.134
Cl  0.846 -3.539 -10.677

2
Na -0.152 -5.821 -9.232
Cl  1.991 -3.327 -10.324

2
Na  0.708 -5.173 -9.913
Cl  1.072 -3.132 -9.051

2
Na -0.291 -5.227 -9.774
Cl  0.182 -4.113 -9.202

2
Na -1.251 -5.043 -9.111
Cl  0.467 -3.222 -9.098

2
Na -0.995 -4.043 -9.725
Cl  0.358 -4.559 -8.985

2
Na -0.731 -3.572 -8.813
Cl  0.984 -2.859 -8.448

2
Na  0.312 -3.981 -8.440
Cl -0.352 -2.462 -9.649

2
Na  0.840 -4.138 -7.085
Cl -1.433 -2.346 -9.650

2
Na  0.268 -3.440 -5.657
Cl -0.109 -2.585 -8.611

2
Na -0.568 -3.432 -5.958
Cl  0.808 -1.747 -8.671

2
Na  0.723 -3.061 -6.619
Cl  1.736 -1.696 -7.413

2
Na -0.250 -2.063 -6.469
Cl  0.688 -2.491 -7.595

2
Na -0.514 -0.443 -6.669
Cl  1.010 -3.015 -7.784

2
Na -1.570 -1.429 -8.547
Cl  0.650 -2.097 -8.476

2
Na -1.431 -0.680 -7.889
Cl  1.450 -2.742 -7.347

2
Na -1.074 -1.917 -9.106
Cl  0.496 -3.022 -9.600

2
Na -1.278 -1.553 -7.294
Cl  0.739 -2.391 -10.055

2
Na -0.415 -1.458 -8.180
Cl  0.648 -2.166 -8.742

2
Na -0.618 -0.980 -8.858
Cl  0.129 -2.954 -9.978

2
Na -0.143 -2.332 -9.227
Cl -0.177 -3.034 -11.046

2
Na -0.150 -1.824  9.729
Cl -2.510 -3.906  8.981

2
Na  0.270 -2.544 -9.170
Cl -1.581 -4.497 -10.189

2
Na  0.425 -1.756 -9.453
Cl -1.105 -4.025 -10.523

2
Na -1.691 -0.955 -8.640
Cl -0.255 -3.691 -10.989

2
Na -1.484 -1.238 -9.933
Cl -1.082 -3.888 -10.382

2
Na -1.588 -1.381  9.641
Cl -3.468 -3.964  8.434

2
Na -2.172 -0.640 -9.703
Cl -2.731 -2.695 -11.224

2
Na -1.182 -0.401 -9.129
Cl -1.085 -3.419 -12.021

2
Na -1.414 -1.029 -8.754
Cl -0.885 -4.788 -11.026

2
Na -1.399 -0.585 -9.697
Cl  0.286 -2.335 -11.953

2
Na -0.606  0.684  9.549
Cl  0.751 -2.741  8.108

2
Na  0.282 -0.482  9.349
Cl  0.578 -2.967  8.004

2
Na  1.869 -1.299  8.348
Cl -0.129 -2.697  7.460

2
Na  2.028 -1.926  9.193
Cl  0.917 -2.587  7.385

2
Na -0.744 -1.501  8.773
Cl  1.591 -2.913  7.365

2
Na -0.676 -0.668  7.014
Cl  2.310 -3.053  6.312

2
Na  0.184 -0.117  7.073
Cl  1.634 -3.527  5.035

2
Na -0.493 -0.960  6.339
Cl  0.424 -3.057  6.742

2
Na -1.676 -2.074  5.975
Cl  0.300 -2.625  7.257

2
Na -3.089 -1.438  5.184
Cl -0.556 -5.111  7.510

2
Na -2.826 -1.087  4.121
Cl -0.234 -4.761  7.385

2
Na -2.301 -1.251  4.164
Cl  0.179 -4.978  6.414

2
Na -1.766 -0.755  4.200
Cl  0.559 -3.937  4.700

2
Na -1.405 -1.146  4.527
Cl  1.610 -4.402  3.212

2
Na -1.553 -1.286  3.999
Cl  1.014 -4.769  3.071

2
Na -0.659 -1.654  4.077
Cl  1.304 -5.529  3.713

2
Na  0.541 -0.301  3.250
Cl -0.983 -4.716  4.387

2
Na  1.030 -0.761  3.886
Cl -1.196 -4.741  5.016

2
Na  1.525 -1.375  4.843
Cl -1.107 -4.563  4.646

2
Na  1.431 -2.312  4.440
Cl -1.636 -4.655  4.331

2
Na  0.494 -2.607  4.787
Cl -0.906 -3.941  4.264

2
Na  0.104 -1.975  5.293
Cl  0.965 -3.429  3.084

2
Na -0.543 -0.862  5.370
Cl  0.635 -4.319  3.546

2
Na -0.870 -2.268  4.019
Cl  1.211 -3.826  3.172

2
Na -1.883 -1.708  2.927
Cl  0.244 -3.500  2.580

2
Na -1.370 -2.070  1.937
Cl -0.306 -4.278  2.619

2
Na -2.118 -2.618  2.894
Cl -1.245 -3.963  4.300

2
Na -1.524 -1.853  1.580
Cl -1.297 -3.831  4.270

2
Na -0.587 -3.092  0.824
Cl  0.349 -3.468  3.906

2
Na  0.986 -3.706  1.497
Cl  0.083 -2.992  4.368

2
Na  1.291 -4.447  1.078
Cl  1.911 -5.336  4.537

2
Na  1.006 -4.021  1.482
Cl  2.706 -6.608  4.358

2
Na  0.570 -4.408  2.041
Cl  1.238 -6.879  3.828

2
Na  0.807 -3.688  1.714
Cl  0.903 -6.040  4.281

2
Na  0.297 -3.305  2.739
Cl  1.225 -5.285  4.255

2
Na  0.076 -3.849  1.659
Cl  1.277 -6.016  3.869

2
Na  0.700 -4.395  1.388
Cl  1.235 -7.284  2.101

2
Na  1.890 -5.272  2.051
Cl  2.571 -7.166  2.941

2
Na  2.473 -4.764  2.454
Cl  2.661 -7.550  3.193

2
Na  0.771 -4.800  3.009
Cl  3.319 -6.364  3.158

2
Na  0.490 -5.702  1.711
Cl  1.542 -5.508  2.536

2
Na -0.112 -7.308  2.190
Cl  2.430 -7.022  0.980

2
Na -0.294 -7.797  3.196
Cl  2.169 -8.107  1.603

2
Na -1.110 -8.096  3.007
Cl  1.353 -8.788  0.593

2
Na -1.297  9.609  2.358
Cl  1.582 10.368  1.949

2
Na -2.132  9.427  0.914
Cl  0.202 11.360  2.060

2
Na -1.504 -9.628  2.653
Cl -0.387 -8.386  1.291

2
Na -2.672  9.862  1.827
Cl -0.398 10.360 -0.568

2
Na -2.296  9.849  1.337
Cl -0.918  9.642 -1.291

2
Na -1.140  8.952  0.342
Cl -1.783 10.004 -1.921

2
Na -1.568  8.107  0.391
Cl -1.747 10.733 -1.425

2
Na -0.772  7.572 -0.479
Cl -0.739  9.918 -1.211

2
Na -1.831  8.186 -0.075
Cl -0.768 10.135 -1.745

2
Na -0.754  7.885  0.878
Cl -1.930  9.492  0.237

2
Na -1.010  6.885  0.191
Cl -0.901  8.566  1.105

2
Na  0.097  7.951  0.544
Cl  0.518  8.448  2.002

2
Na  0.039  8.545 -0.002
Cl -0.723  8.557  1.974

2
Na -0.936  8.544  0.204
Cl -1.041  8.947  1.106

2
Na -0.144  9.380 -0.205
Cl -2.432  8.757  1.903

2
Na -0.181  8.700 -0.545
Cl -1.898  9.407  2.429

2
Na  0.426  8.710  1.615
Cl -1.698  8.899  2.112

2
Na -0.164  9.808  0.175
Cl -1.074  9.138  2.846

2
Na -0.065  9.443  0.222
Cl  1.071  7.656  2.447

2
Na -0.872  8.964  1.181
Cl  1.619  7.564  2.224

2
Na -0.321  7.782  2.776
Cl -0.363  8.032  3.012

2
Na  0.439  7.327  2.354
Cl -0.772  8.755  2.389

2
Na  0.937  6.129  0.320
Cl -1.862  8.069  2.042

2
Na  1.316  6.973  1.759
Cl -1.215  7.991  1.742

2
Na  1.086  6.578  1.025
Cl -0.621  6.857  2.905

2
Na  0.953  6.066  1.956
Cl  0.635  7.425  1.465

2
Na  1.246  6.160  0.854
Cl -0.577  8.644  2.425

2
Na  1.793  5.488  0.717
Cl -0.169  6.666  2.322

2
Na  1.426  5.893  0.572
Cl  0.100  6.941  0.812

2
Na  0.922  7.429  1.317
Cl -1.615  6.850  0.286

2
Na  0.603  6.472  1.704
Cl -1.572  6.654  1.072

2
Na  0.393  7.417 -0.190
Cl -2.212  6.236  0.105

2
Na -0.311  7.653  0.481
Cl -2.569  7.202 -0.111

2
Na  1.328  7.610  0.462
Cl -1.580  6.386  0.174

2
Na  0.893  7.876  0.310
Cl -1.577  8.207  0.094

2
Na  1.838  6.870 -0.501
Cl -1.224  7.448 -1.393

2
Na  0.122  7.699 -1.326
Cl -0.805  7.942 -1.566

2
Na  1.276  8.280 -0.607
Cl  0.287  6.340 -0.116

2
Na  3.009  8.313  0.172
Cl  0.423  5.303 -0.161

2
Na  3.532  5.643 -0.144
Cl  0.309  4.430  0.152

2
Na  3.177  5.955 -0.882
Cl  0.047  4.211 -1.140

2
Na  3.907  6.968 -1.960
Cl -0.227  4.869 -2.485

2
Na  2.381  7.397 -1.970
Cl  0.394  5.400 -3.005

2
Na  2.437  8.277 -1.761
Cl  1.207  5.244 -2.854

2
Na  1.248  7.871 -2.539
Cl  2.297  4.417 -3.021

2
Na -0.003  7.604 -2.522
Cl  1.202  6.704 -2.185

2
Na -0.975  8.019 -1.404
Cl  0.492  6.426 -2.083

2
Na -1.102  6.752 -1.682
Cl  0.600  7.269 -1.823

2
Na -0.046  8.032 -0.973
Cl  0.796  8.162 -3.415

2
Na  0.927  8.068 -1.015
Cl -0.075  8.212 -4.002

2
Na  1.287  8.811  0.653
Cl  1.373  8.462 -1.896

2
Na  0.927  9.692 -0.793
Cl  3.195 10.017 -1.402

2
Na -0.509 -9.751 -0.759
Cl  4.106 -9.671 -1.621

2
Na  0.148  9.704 -0.665
Cl  2.108  9.120 -1.751

2
Na -0.009  9.876  0.626
Cl  2.429  9.773 -1.425

2
Na  1.085  9.583  0.565
Cl  2.631 10.149  0.576

2
Na  0.272  9.579  1.202
Cl  1.961  9.290  0.264

2
Na -0.738  9.010  0.787
Cl  0.415 10.157  1.612

2
Na -0.358  9.211  1.005
Cl  0.901  9.959  0.390

2
Na -1.206  7.808  1.768
Cl -0.257 10.294  0.467

2
Na -2.144  6.870  0.952
Cl  0.136 10.161  0.839

2
Na -1.392  7.271  0.216
Cl -0.314  9.336  0.625

2
Na -2.597  7.899  1.486
Cl  0.166  8.490  0.832

2
Na -1.282  6.561  2.144
Cl -0.740  6.137  0.304

2
Na -1.686  7.321  3.317
Cl -1.388  6.602  1.600

2
Na -2.732  6.431  3.708
Cl -3.442  7.197  2.089

2
Na -4.340  7.011  4.044
Cl -2.719  5.365  1.685

2
Na -3.554  7.688  4.037
Cl -2.923  5.435  3.501

2
Na -4.079  7.831  3.493
Cl -4.822  5.459  3.870

2
Na -5.501  7.339  3.971
Cl -3.887  5.001  3.789

2
Na -5.518  6.237  3.615
Cl -3.781  5.046  3.980

2
Na -4.191  7.150  3.530
Cl -4.087  5.003  3.562

2
Na -3.532  7.987  4.643
Cl -5.369  5.141  3.506

2
Na -3.506  8.259  4.764
Cl -6.078  6.310  4.574

2
Na -3.300  8.175  5.050
Cl -5.881  6.875  3.370

2
Na -4.143  8.312  6.315
Cl -4.780  5.225  2.832

2
Na -3.411  8.130  5.261
Cl -3.733  6.247  3.090

2
Na -3.477  8.495  4.828
Cl -3.184  6.419  2.553

2
Na -4.446  7.835  4.640
Cl -3.489  7.621  1.980

2
Na -4.503  7.307  4.484
Cl -2.612  7.897  2.724

2
Na -6.243  6.151  4.317
Cl -4.431  6.098  2.130

2
Na -6.405  6.861  4.945
Cl -3.407  6.606  1.490

2
Na -5.949  7.481  4.468
Cl -3.885  5.491  1.922

2
Na -5.372  7.421  5.935
Cl -4.008  5.189  1.747

2
Na -6.393  7.085  5.278
Cl -5.475  4.512  1.559

2
Na -6.589  7.880  2.483
Cl -6.223  4.837  3.611

2
Na -6.601  7.383  2.316
Cl -7.092  4.680  3.630

2
Na -7.227  6.217  3.593
Cl -5.602  4.763  3.712

2
Na -6.746  3.851  3.809
Cl -7.260  4.717  5.056

2
Na -5.588  4.202  5.626
Cl -8.730  3.926  4.850

2
Na -5.560  4.905  5.104
Cl -8.692  3.560  3.935

2
Na -6.941  5.774  4.792
Cl -8.888  2.911  3.624

2
Na -7.479  5.683  5.555
Cl -9.640  2.863  3.121

2
Na -9.212  4.368  6.445
Cl -9.755  4.079  2.824

2
Na -9.660  3.019  5.390
Cl -9.407  3.634  3.073

2
Na -8.983  3.192  4.866
Cl -9.436  4.601  2.070

2
Na -8.358  2.968  3.753
Cl -8.531  4.630  1.407

2
Na -7.916  3.277  2.053
Cl -8.399  5.971  1.147

2
Na -7.554  4.924  1.449
Cl -8.052  6.063 -0.592

2
Na -6.811  5.236  0.811
Cl -7.823  4.990 -0.996

2
Na -7.529  4.761  0.230
Cl -9.419  4.378 -1.750

2
Na -7.857  4.347  0.673
Cl -8.619  5.279 -0.874

2
Na -7.264  3.597  0.296
Cl -8.368  5.821 -0.942

2
Na -7.568  5.042 -1.520
Cl -8.489  5.190 -0.106

2
Na -9.335  4.327 -1.893
Cl -8.438  4.696  2.100

2
Na  9.709  3.822 -2.038
Cl 12.507  4.620  1.852

2
Na -8.541  3.299 -1.361
Cl -9.072  5.520  1.894

2
Na -7.279  4.160 -1.234
Cl -8.145  5.458  1.146

2
Na -7.749  3.657 -1.382
Cl -8.404  5.036  1.269

2
Na -7.819  3.780 -0.823
Cl -9.798  5.035  1.206

2
Na -7.319  5.533 -0.235
Cl -10.107  6.201  1.287

2
Na -8.445  4.198 -1.151
Cl -10.101  5.423  1.856

2
Na -9.046  3.495 -0.284
Cl -9.238  7.062  0.821

2
Na -8.528  4.085 -0.205
Cl -8.647  6.881  1.577

2
Na -9.189  4.964  2.188
Cl -9.865  7.627  1.847

2
Na  9.715  5.785  3.022
Cl  8.663  7.017  3.205

2
Na  8.878  5.999  1.376
Cl  7.783  5.185  2.043

2
Na  9.691  6.362  0.004
Cl  8.068  6.041  1.943

2
Na  9.820  6.842  1.332
Cl  9.787  6.520  1.355

2
Na -9.735  6.092  1.195
Cl -7.811  6.513  0.911

2
Na -9.972  6.250  2.804
Cl -5.633  5.853  1.822

2
Na -8.779  6.120  2.271
Cl -6.250  5.186  1.336

2
Na -7.984  4.938  1.489
Cl -6.617  6.466  1.128

2
Na -7.808  5.306  0.433
Cl -7.458  6.892  0.858

2
Na -8.936  4.758  1.866
Cl -7.841  6.595  3.520

2
Na -8.823  4.109  1.188
Cl -7.286  6.058  3.534

2
Na -8.276  4.131  1.796
Cl -8.229  5.529  4.264

2
Na -7.649  3.875  2.896
Cl -8.438  6.090  4.668

2
Na -8.292  3.757  3.981
Cl -8.440  6.769  4.277

2
Na -9.614  4.507  3.338
Cl -8.698  5.452  4.610

2
Na -8.965  4.907  1.619
Cl -10.644  5.304  2.842

2
Na -8.761  5.304  2.315
Cl -9.967  3.362  2.753

2
Na -9.748  4.454  2.329
Cl -9.359  2.203  3.172

2
Na  9.467  3.732  2.480
Cl 11.893  3.259  2.052

2
Na  8.648  3.506  2.279
Cl 11.252  2.898  3.869

2
Na  8.368  2.993  1.345
Cl 10.181  2.918  3.762

2
Na  7.147  1.750  0.892
Cl 10.177  2.304  3.440

2
Na  8.744  2.134  1.085
Cl  9.706  2.327  2.529

2
Na  9.473  2.288  1.519
Cl  8.369  1.207  2.012

2
Na  9.223  2.326  1.859
Cl  7.272  3.219  0.883

2
Na  9.039  2.365  2.066
Cl  7.735  2.640  2.935

2
Na  8.081  3.008  1.925
Cl  6.821  0.505  4.037

2
Na  8.489  0.028  2.203
Cl  6.582  0.132  3.412

2
Na  9.418 -1.399  3.888
Cl  7.784  0.421  1.316

2
Na  7.841  0.355  3.228
Cl  7.798  0.247  1.375

2
Na  8.458  1.832  4.529
Cl  8.594  0.677  2.735

2
Na -9.825  2.466  2.750
Cl -11.096  2.511  0.885

2
Na -7.927  2.018  2.309
Cl -9.539  0.920  1.166

2
Na -5.834  2.516  1.835
Cl -8.412  2.212  2.305

2
Na -5.674  3.072  2.296
Cl -8.067  2.638  2.892

2
Na -5.420  2.532  3.080
Cl -7.486  3.213  3.803

2
Na -4.922  2.233  3.743
Cl -5.955  2.864  3.601

2
Na -5.339  4.394  3.350
Cl -6.241  2.985  3.653

2
Na -5.346  3.913  5.029
Cl -7.294  3.890  4.036

2
Na -8.187  4.116  6.003
Cl -7.023  4.251  5.101

2
Na -8.252  5.992  6.956
Cl -8.708  4.167  5.607

2
Na  9.101  6.116  6.302
Cl 10.200  4.684  6.753

2
Na  9.451  6.044  7.894
Cl 10.425  4.111  8.373

2
Na  8.657  5.482  8.050
Cl 11.667  3.638  8.795

2
Na  8.151  6.456  8.648
Cl 10.690  4.380  9.055

2
Na  8.651  5.853  7.751
Cl 10.154  5.202 10.667

2
Na  8.999  6.710  5.727
Cl  9.539  5.198 10.276

2
Na  9.730  6.938  6.384
Cl 11.082  5.458 10.201

2
Na -8.233  5.043  6.198
Cl -7.570  5.684  9.713

2
Na -7.541  6.083  7.854
Cl -7.410  4.555  9.881

2
Na -6.459  6.284  8.572
Cl -7.651  4.094 10.362

2
Na -6.262  6.439  8.971
Cl -7.127  2.777 10.880

2
Na -6.550  7.205  9.881
Cl -8.032  2.241 10.907

2
Na -6.791  6.819 -9.410
Cl -8.547  3.907 -10.325

2
Na -6.446  7.396 -8.852
Cl -7.941  3.902 -11.284

2
Na -6.406  7.260  9.628
Cl -6.999  4.445  8.783

2
Na -7.314  6.823  7.532
Cl -6.785  3.985  8.671

2
Na -7.033  5.814  8.213
Cl -6.759  4.276  8.238

2
Na -6.371  6.780  7.858
Cl -6.816  4.596 10.455

2
Na -5.492  6.620  8.812
Cl -6.324  6.082  9.427

2
Na -5.041  7.151  9.267
Cl -7.568  6.334  8.412

2
Na -4.736  5.660  9.707
Cl -7.791  7.782  8.778

2
Na -4.152  6.347  8.701
Cl -7.667  7.780  8.538

2
Na -4.979  7.101  9.186
Cl -6.197  8.020  7.415

2
Na -5.162  6.094  8.966
Cl -6.426  8.061  8.360

2
Na -5.638  4.404  7.448
Cl -6.694  7.395  6.900

2
Na -5.591  5.247  7.076
Cl -7.034  7.023  7.359

2
Na -5.931  5.575  7.635
Cl -8.025  6.427  8.084

2
Na -5.705  5.371  7.566
Cl -8.388  5.129  7.875

2
Na -4.822  5.297  7.772
Cl -8.074  5.444  8.832

2
Na -4.579  5.172  8.008
Cl -7.317  4.016  9.335

2
Na -4.320  5.531  7.078
Cl -6.032  2.587  7.530

2
Na -5.444  5.596  6.941
Cl -5.757  2.922  6.473

2
Na -6.002  5.856  7.460
Cl -7.493  3.627  6.433

2
Na -7.078  5.754  7.720
Cl -6.159  4.230  7.526

2
Na -6.632  5.018  7.029
Cl -5.046  3.658  6.735

2
Na -6.990  5.101  7.125
Cl -5.676  3.146  6.348

2
Na -6.733  5.039  7.684
Cl -5.350  1.863  6.404

2
Na -6.904  4.885  6.569
Cl -6.318  1.716  6.841

2
Na -7.389  6.251  6.785
Cl -6.482  3.400  5.758

2
Na -8.223  5.445  5.979
Cl -6.926  4.177  5.151

2
Na -8.057  5.076  5.968
Cl -6.605  4.200  5.962

2
Na -8.294  5.308  6.130
Cl -8.288  2.790  7.798

2
Na -7.975  4.686  6.390
Cl -8.494  2.177  6.945

2
Na -8.009  4.284  7.815
Cl -7.431  2.393  7.388

2
Na -9.439  3.236  6.958
Cl -8.067  2.055  8.684

2
Na  9.629  3.302  7.401
Cl 11.641  1.735  7.508

2
Na -8.968  4.897  6.913
Cl -7.649  1.982  7.219

2
Na -7.668  4.896  6.913
Cl -8.520  1.398  5.856

2
Na -8.851  5.667  7.007
Cl -8.105  2.923  5.490

2
Na -8.774  4.584  6.512
Cl -8.875  2.995  4.749

2
Na -7.321  4.700  6.801
Cl -7.737  2.442  4.640

2
Na -6.865  4.371  6.256
Cl -8.768  3.014  4.284

2
Na -6.955  4.481  6.604
Cl -8.809  2.833  6.334

2
Na -7.367  5.448  7.058
Cl -8.680  1.819  5.626

2
Na -7.483  4.517  5.023
Cl -8.011  2.022  5.456

2
Na -8.492  2.390  4.048
Cl -7.411  2.187  4.614

2
Na -9.678  1.516  4.168
Cl -8.147  1.325  5.687

2
Na -8.616  0.552  3.268
Cl -8.401 -0.047  6.303

2
Na -8.753  0.359  3.207
Cl -8.508  0.575  5.400

2
Na -9.199  1.004  3.739
Cl -8.999  2.640  4.361

2
Na -7.861  0.008  3.423
Cl -9.944  1.744  4.708

2
Na -8.408  1.114  3.660
Cl -10.423  3.599  5.029

2
Na -8.290  0.438  4.333
Cl -9.358  2.784  3.975

2
Na  9.042  0.070  4.121
Cl 10.490  1.579  4.533

2
Na  9.894 -0.479  4.035
Cl 10.208  1.586  4.447

2
Na -9.992 -0.875  3.233
Cl -11.047  1.149  4.573

2
Na -9.677 -0.965  1.787
Cl -12.140  1.446  3.602

2
Na  9.272 -1.080  0.370
Cl  8.668  0.371  4.196

2
Na -9.919 -0.644 -0.271
Cl -12.423  0.282  3.018

2
Na 10.000  0.118  0.059
Cl  8.345 -1.303  2.682

2
Na -9.528  0.749  0.366
Cl -12.120 -1.992  2.275

2
Na -9.654  0.342  0.568
Cl -11.531 -1.293  1.449

2
Na  8.516  0.819  0.364
Cl  9.532 -2.167  0.622

2
Na  7.516  0.814  0.150
Cl 10.114 -1.622  1.364

2
Na  7.515  0.071  0.693
Cl  9.785  0.046  2.666

2
Na  7.104 -0.618  1.402
Cl  9.632 -0.574  2.257

2
Na  5.798 -0.398  0.910
Cl  8.994 -1.676  2.173

2
Na  6.984 -0.572  0.809
Cl  9.464 -2.010  2.121

2
Na  7.556 -0.401 -0.353
Cl 10.408 -0.834  2.349

2
Na  9.100 -1.410  1.314
Cl  9.665 -0.473  2.858

2
Na  9.388 -1.074  2.150
Cl  9.223 -1.849  3.068

2
Na  7.374 -0.879  2.315
Cl  6.553 -2.300  2.462

2
Na  7.279 -0.209  2.046
Cl  6.563 -1.273  1.972

2
Na  8.717 -0.113  1.375
Cl  7.041 -0.369  0.743

2
Na  7.155 -0.180 -0.819
Cl  6.242  0.639  1.742

2
Na  8.416 -0.843 -1.236
Cl  6.889  0.473  2.656

2
Na  9.426 -2.580 -0.632
Cl  7.081 -0.304  1.989

2
Na  9.308 -3.160  2.292
Cl  7.787 -1.005  1.331

2
Na  9.806 -2.583  1.197
Cl  7.883 -1.456  1.331

2
Na  9.607 -2.431  0.833
Cl  8.804 -0.540  0.903

2
Na  9.075 -2.492  2.098
Cl  7.440 -0.082  2.360

2
Na  4.927 -2.551  2.275
Cl  7.575 -0.518  2.928

2
Na  6.610 -3.188  2.583
Cl  6.496 -1.787  0.810

2
Na  7.695 -2.113  1.746
Cl  7.582 -1.480  2.157

2
Na  7.762 -2.243  2.170
Cl  8.814 -2.939  2.585

2
Na  7.688 -3.059  1.757
Cl  8.696 -3.504  2.677

2
Na  7.832 -3.680  0.758
Cl  8.186 -4.305  1.882

2
Na  8.214 -4.433  0.646
Cl  9.430 -4.644  1.818

2
Na  8.248 -2.889  1.410
Cl  8.952 -4.987  2.221

2
Na  8.988 -3.632  3.320
Cl  9.716 -5.928  0.997

2
Na  8.790 -4.235  1.886
Cl  9.374 -6.939 -0.047

2
Na  9.894 -4.474  2.512
Cl  9.015 -5.650  0.330

2
Na  9.934 -6.203  3.215
Cl  9.326 -6.262  0.735

2
Na -9.255 -4.819  3.146
Cl -11.337 -5.299 -0.517

2
Na  9.795 -4.743  2.829
Cl  9.739 -5.393  0.248

2
Na -9.698 -4.657  2.826
Cl -11.470 -5.640  0.219

2
Na  9.306 -5.326  2.875
Cl  7.272 -7.210  0.803

2
Na  8.279 -5.848  2.815
Cl  7.071 -6.959  0.445

2
Na  8.355 -5.100  2.806
Cl  7.743 -8.177  0.201

2
Na  7.426 -5.131  1.864
Cl  8.110 -5.657  0.013

2
Na  7.276 -5.889  1.866
Cl  9.353 -6.324  0.657

2
Na  8.323 -6.216  3.605
Cl  9.557 -6.193  1.041

2
Na  8.263 -6.930  4.610
Cl 10.474 -7.375  3.974

2
Na  8.739 -7.274  5.143
Cl 11.188 -6.246  5.533

2
Na  8.092 -7.850  4.438
Cl  9.498 -6.275  6.139

2
Na  7.975 -7.646  4.011
Cl 10.558 -6.901  5.942

2
Na  8.262 -9.352  4.402
Cl  9.087 -6.383  6.163

2
Na  8.101 -9.365  4.031
Cl  7.832 -7.870  5.537

2
Na  8.015 -8.866  3.492
Cl  8.931 -8.721  5.888

2
Na  7.146 -8.306  3.102
Cl  7.288 -7.044  6.189

2
Na  7.485 -8.132  2.314
Cl  8.332 -6.748  4.991

2
Na  6.821 -9.756  3.100
Cl  8.828 -6.683  3.397

2
Na  8.108 -9.628  4.716
Cl  9.078 -6.095  3.398

2
Na  8.343 -9.737  7.141
Cl  9.720 -7.311  2.840

2
Na  8.152  9.789  7.238
Cl  8.682 12.618  3.225

2
Na  8.681 -9.216  7.824
Cl 10.221 -7.842  2.707

2
Na  8.408 -8.563  5.265
Cl 10.005 -7.756  3.242

2
Na  7.266 -7.367  4.982
Cl  9.457 -7.052  5.637

2
Na  7.651 -7.596  3.379
Cl  8.463 -7.176  4.701

2
Na  6.743 -6.889  3.356
Cl  8.977 -5.642  4.705

2
Na  6.841 -8.017  4.506
Cl  9.525 -5.934  5.423

2
Na  8.354 -7.342  3.937
Cl  8.086 -4.439  5.121

2
Na  9.634 -6.744  4.454
Cl  8.822 -4.922  5.628

2
Na  8.805 -6.752  3.190
Cl  8.927 -4.670  5.139

2
Na  7.999 -6.908  3.061
Cl  8.440 -3.748  3.069

2
Na  5.920 -6.289  1.916
Cl  8.968 -5.826  2.292

2
Na  6.335 -3.805  1.727
Cl  8.303 -6.329  1.398

2
Na  6.594 -3.107  1.431
Cl  7.680 -4.447  2.890

2
Na  7.491 -3.126  2.486
Cl  8.694 -1.870  2.035

2
Na  7.205 -2.141  3.534
Cl  7.654 -1.072  1.961

2
Na  6.129 -0.696  4.593
Cl  7.095 -1.052  1.600

2
Na  7.094  0.292  5.785
Cl  6.437  0.374  2.306

2
Na  7.703 -1.633  4.573
Cl  6.456 -0.242  1.186

2
Na  8.048 -1.700  4.116
Cl  6.072 -1.376  1.221

2
Na  8.458 -1.489  4.808
Cl  6.071 -1.320  2.181

2
Na  9.301 -1.584  4.744
Cl  6.012 -1.837  4.213

2
Na  8.962 -0.830  3.845
Cl  5.911 -2.359  2.878

2
Na -9.885 -2.492  4.624
Cl -13.444 -2.377  2.492

2
Na  9.624 -1.975  3.601
Cl  6.708 -2.311  2.542

2
Na  8.648 -0.605  3.354
Cl  8.192 -2.921  3.709

2
Na  9.003 -0.882  4.569
Cl  7.912 -3.068  2.309

2
Na  7.217 -1.697  3.962
Cl  7.427 -1.613  2.125

2
Na  7.371 -3.251  3.138
Cl  8.257 -1.974  3.425

2
Na  8.092 -1.886  3.305
Cl  8.171 -1.225  4.399

2
Na  6.595 -1.360  4.559
Cl  7.883  0.305  4.581

2
Na  6.569  0.553  4.754
Cl  8.590  0.105  3.081

2
Na  5.968 -1.024  5.156
Cl  7.515 -0.314  2.989

2
Na  6.235 -1.125  5.777
Cl  6.454 -0.833  3.020

2
Na  5.306 -0.958  4.649
Cl  6.364 -0.718  2.916

2
Na  5.407  0.429  4.913
Cl  5.912 -0.774  4.311

2
Na  5.661  0.037  5.892
Cl  6.887 -0.068  4.783

2
Na  5.590 -1.190  7.770
Cl  7.513 -0.545  6.491

2
Na  6.041 -1.880  8.701
Cl  7.872 -1.577  6.430

2
Na  7.628 -2.145  8.064
Cl  6.460 -2.019  5.969

2
Na  6.370 -1.471  8.074
Cl  5.449 -1.207  6.248

2
Na  5.198 -1.645  8.564
Cl  5.724 -1.678  6.445

2
Na  3.939 -1.777  8.491
Cl  5.739 -4.115  7.041

2
Na  5.599 -1.901  8.408
Cl  3.935 -4.547  8.298

2
Na  5.798 -2.038  6.951
Cl  4.312 -4.291  8.914

2
Na  5.059 -1.907  8.041
Cl  5.811 -4.603  8.443

2
Na  4.776 -2.810  7.971
Cl  6.621 -3.529  8.124

2
Na  3.942 -3.967  6.970
Cl  5.565 -3.991  8.496

2
Na  4.743 -4.625  8.078
Cl  4.984 -3.282  8.837

2
Na  4.116 -3.701  7.574
Cl  6.152 -2.871 10.125

2
Na  4.627 -4.801  7.624
Cl  5.067 -3.949 10.033

2
Na  4.876 -5.078  7.493
Cl  5.552 -4.039  9.659

2
Na  4.074 -5.440  8.202
Cl  4.024 -4.761  8.500

2
Na  4.692 -6.049  8.652
Cl  4.469 -5.613  9.150

2
Na  6.030 -4.929  7.054
Cl  7.202 -5.841  8.772

2
Na  7.120 -5.618  8.310
Cl  6.376 -7.440  7.971

2
Na  6.873 -6.344  9.354
Cl  5.938 -8.033  7.787

2
Na  7.752 -6.534  9.759
Cl  5.562 -7.586  8.140

2
Na  8.614 -5.240  8.918
Cl  6.143 -6.207  7.993

2
Na  7.689 -5.579  9.020
Cl  6.063 -6.037  8.905

2
Na  8.045 -5.831  8.957
Cl  5.581 -5.979  8.668

2
Na  6.669 -5.033  8.457
Cl  5.311 -5.676  9.516

2
Na  6.300 -5.092  8.913
Cl  5.777 -6.358  9.647

2
Na  5.960 -4.534  9.130
Cl  6.380 -4.748  9.221

2
Na  5.133 -4.014  9.732
Cl  6.363 -6.266  9.635

2
Na  5.139 -4.988 -8.600
Cl  5.629 -7.312 -10.521

2
Na  5.497 -4.584 -9.579
Cl  5.923 -7.330 -9.990

2
Na  5.786 -4.754 -8.301
Cl  6.643 -6.421 -8.860

2
Na  7.208 -4.941 -8.729
Cl  6.056 -5.175 -7.253

2
Na  8.110 -3.826 -7.804
Cl  5.163 -4.303 -7.637

2
Na  8.823 -5.306 -8.231
Cl  5.442 -4.671 -7.070

2
Na  7.194 -3.530 -8.560
Cl  5.472 -4.967 -7.058

2
Na  6.434 -4.190 -7.498
Cl  6.521 -4.704 -5.404

2
Na  7.941 -5.559 -7.940
Cl  7.202 -5.648 -5.997

2
Na  8.709 -4.281 -6.557
Cl  6.795 -7.149 -7.077

2
Na  8.165 -5.067 -5.295
Cl  7.717 -7.732 -8.591

2
Na  7.562 -5.897 -5.854
Cl  8.857 -7.706 -6.831

2
Na  7.128 -5.959 -5.427
Cl  8.797 -7.800 -7.518

2
Na  7.633 -6.302 -4.826
Cl  8.283 -7.619 -5.980

2
Na  7.040 -6.777 -4.429
Cl  7.418 -8.474 -6.020

2
Na  7.251 -7.259 -5.386
Cl  6.303 -9.151 -6.131

2
Na  8.146 -7.471 -5.691
Cl  6.673 -9.110 -6.861

2
Na  7.601 -7.526 -5.546
Cl  7.074 -9.491 -6.565

2
Na  7.323 -7.370 -6.093
Cl  7.677 -9.825 -8.084

2
Na  6.835 -8.071 -6.286
Cl  8.075 -8.023 -8.984

2
Na  7.640 -7.325 -6.715
Cl  6.807 -6.935 -9.600

2
Na  7.659 -6.877 -7.743
Cl  5.163 -6.781 -9.701

2
Na  7.127 -5.517 -7.965
Cl  5.220 -4.342 -8.633

2
Na  7.733 -6.499 -7.406
Cl  5.989 -5.058 -9.028

2
Na  7.319 -7.150 -6.502
Cl  4.759 -5.683 -9.520

2
Na  5.940 -5.942 -8.322
Cl  3.455 -5.606 -9.188

2
Na  7.500 -6.997 -7.641
Cl  4.929 -5.990 -9.245

2
Na  7.076 -7.808 -8.958
Cl  5.219 -6.478 -10.607

2
Na  7.481 -8.749 -9.588
Cl  6.742 -6.957 -11.108

2
Na  6.757 -7.076  9.708
Cl  6.370 -8.194  9.629

2
Na  5.804 -7.137 -9.999
Cl  7.270 -7.886 -10.324

2
Na  6.259 -5.844 -8.355
Cl  6.467 -7.081 -11.260

2
Na  6.837 -5.158 -9.970
Cl  6.462 -6.675 -10.952

2
Na  5.860 -2.989 -9.112
Cl  6.494 -7.154 -10.000

2
Na  5.874 -3.966 -8.741
Cl  7.068 -7.799 -10.303

2
Na  5.711 -3.649 -8.221
Cl  8.090 -6.255 -10.459

2
Na  6.013 -3.772 -9.349
Cl  7.668 -5.510 -10.949

2
Na  5.408 -4.130 -8.868
Cl  7.391 -5.689 -10.036

2
Na  5.362 -4.669 -9.956
Cl  6.616 -6.059 -10.027

2
Na  3.688 -5.903 -8.405
Cl  5.730 -6.498 -8.805

2
Na  4.241 -6.735 -7.766
Cl  5.112 -4.642 -8.720

2
Na  3.289 -6.258 -6.298
Cl  3.198 -5.088 -6.801

2
Na  4.047 -6.426 -6.329
Cl  3.162 -3.913 -7.930

2
Na  2.886 -6.672 -7.443
Cl  2.626 -4.966 -7.648

2
Na  3.470 -5.831 -7.510
Cl  2.163 -5.023 -7.216

2
Na  3.725 -6.686 -8.598
Cl  3.437 -5.410 -6.750

2
Na  5.228 -6.824 -9.431
Cl  4.103 -5.288 -7.374

2
Na  5.565 -7.113 -9.291
Cl  5.287 -4.465 -10.144

2
Na  4.389 -6.283 -9.489
Cl  4.690 -4.019 -8.796

2
Na  4.621 -5.081 -9.651
Cl  5.347 -4.137 -8.845

2
Na  5.067 -6.673 -8.902
Cl  5.594 -3.931 -8.046

2
Na  3.581 -5.469 -7.963
Cl  5.018 -4.424 -8.476

2
Na  4.921 -5.241 -8.679
Cl  4.262 -5.068 -8.408

2
Na  4.495 -5.851 -9.664
Cl  2.684 -5.656 -9.305

2
Na  5.012 -5.260  9.855
Cl  3.117 -6.519 10.315

2
Na  5.648 -5.872 -9.798
Cl  5.065 -6.767 -10.877

2
Na  5.725 -5.847 -8.763
Cl  5.149 -7.546 -11.176

2
Na  4.866 -4.690  9.369
Cl  6.296 -6.969  9.085

2
Na  3.814 -4.727  9.279
Cl  4.919 -6.671  9.721

2
Na  4.580 -6.873 -9.975
Cl  6.325 -6.429 -10.514

2
Na  5.481 -5.242  8.740
Cl  5.539 -6.151 10.869

2
Na  3.793 -6.592  8.175
Cl  6.193 -6.278  9.201

2
Na  4.061 -7.124  9.823
Cl  5.940 -5.401  9.110

2
Na  4.646 -7.882  9.824
Cl  5.912 -5.252  9.143

2
Na  4.528 -7.041  9.707
Cl  5.943 -5.916  9.743

2
Na  3.998 -6.274  8.957
Cl  6.934 -4.838  8.882

2
Na  5.599 -5.031  8.191
Cl  6.310 -3.953  8.400

2
Na  5.955 -6.173  7.632
Cl  5.213 -4.017  6.607

2
Na  6.781 -5.693  7.108
Cl  5.669 -5.146  5.921

2
Na  6.487 -4.697  7.175
Cl  5.895 -4.311  5.149

2
Na  7.093 -4.008  7.110
Cl  6.227 -5.958  5.868

2
Na  8.523 -3.315  6.503
Cl  6.182 -4.091  6.734

2
Na  8.039 -3.400  5.085
Cl  5.431 -4.053  6.963

2
Na  8.326 -3.600  5.029
Cl  5.845 -3.534  5.710

2
Na  7.995 -2.108  3.862
Cl  5.843 -3.062  6.649

2
Na  7.657 -2.140  3.449
Cl  5.457 -2.762  5.987

2
Na  6.189 -0.950  4.152
Cl  5.963 -2.014  5.552

2
Na  6.580 -1.509  3.538
Cl  5.946 -2.830  4.794

2
Na  7.721 -1.926  3.526
Cl  6.097 -1.765  5.476

2
Na  7.104 -2.047  4.216
Cl  5.808 -2.741  4.959

2
Na  6.908 -1.761  5.662
Cl  6.049 -2.777  5.841

2
Na  6.339 -2.752  7.566
Cl  7.138 -3.018  4.146

2
Na  7.139 -3.071  7.294
Cl  7.469 -3.865  3.585

2
Na  6.609 -2.619  6.508
Cl  7.242 -4.327  4.652

2
Na  8.401 -2.095  7.180
Cl  8.288 -3.102  5.239

2
Na  7.814 -2.054  7.257
Cl  8.954 -2.441  4.760

2
Na  7.334 -0.725  6.874
Cl  7.415 -3.108  5.831

2
Na  7.749 -0.580  6.738
Cl  7.637 -2.741  5.016

2
Na  8.310 -0.732  6.135
Cl  8.421 -2.708  5.781

2
Na  7.686 -2.307  7.598
Cl  8.377 -2.703  6.159

2
Na  8.082 -4.197  8.506
Cl  8.430 -4.945  5.716

2
Na  8.210 -3.297  7.610
Cl  7.862 -5.161  6.807

2
Na  7.487 -2.713  7.102
Cl  6.480 -3.658  6.184

2
Na  7.556 -3.609  7.173
Cl  7.256 -2.781  5.151

2
Na  9.233 -4.382  6.820
Cl  6.702 -2.439  4.454

2
Na  9.845 -4.202  6.701
Cl  6.744 -2.235  3.840

2
Na -9.577 -2.936  6.688
Cl -11.716 -3.072  5.828

2
Na -8.786 -3.709  5.963
Cl -11.145 -2.192  5.991

2
Na -7.521 -2.498  4.539
Cl -9.577 -3.441  6.146

2
Na -7.591 -1.626  6.382
Cl -9.254 -3.036  4.701

2
Na -8.417 -1.437  7.388
Cl -9.137 -2.147  4.463

2
Na -9.394 -0.212  5.313
Cl -8.408 -1.153  5.310

2
Na -8.967 -0.933  4.161
Cl -8.943 -0.989  6.402

2
Na -8.277 -0.747  4.902
Cl -8.499 -0.598  6.706

2
Na -8.513 -0.302  4.380
Cl -9.416  0.012  6.700

2
Na -8.036 -0.266  5.279
Cl -9.920 -0.402  7.194

2
Na -8.295 -0.432  4.686
Cl -8.730 -1.041  7.179

2
Na -8.604  0.507  4.138
Cl -9.346  0.585  8.149

2
Na -8.913  1.012  4.978
Cl -9.324  1.486  8.173

2
Na -9.546  0.110  5.927
Cl -7.603  0.907  6.380

2
Na -8.536 -0.512  4.284
Cl -8.621  0.156  5.499

2
Na  8.674  0.123  5.801
Cl 10.534 -1.414  6.325

2
Na  9.138  1.808  5.021
Cl  8.710 -0.087  6.828

2
Na  6.451  2.174  4.773
Cl  9.925  1.039  6.208

2
Na  6.775  1.671  5.363
Cl  9.331  2.368  5.793

2
Na  6.840  1.275  4.209
Cl  8.880  1.184  6.462

2
Na  7.601  2.275  3.370
Cl  6.470  1.149  6.109

2
Na  9.082  1.944  3.846
Cl  6.776 -0.138  5.568

2
Na  7.189  1.999  5.128
Cl  6.454  1.898  4.570

2
Na  7.676  1.059  3.910
Cl  6.084  1.553  3.822

2
Na  6.625  1.727  3.087
Cl  7.312  2.841  4.653

2
Na  5.494  0.458  2.336
Cl  6.629  2.893  4.561

2
Na  6.704  1.121  3.647
Cl  6.560  2.996  2.486

2
Na  5.625  0.272  4.265
Cl  8.069  2.871  2.916

2
Na  6.272 -0.210  3.333
Cl  7.532  3.082  3.558

2
Na  5.582  1.977  3.271
Cl  7.516  1.925  5.371

2
Na  5.368  0.643  3.748
Cl  7.141  2.181  5.642

2
Na  7.474 -0.160  4.587
Cl  8.582  1.411  4.352

2
Na  7.253 -0.439  5.123
Cl  9.699  2.950  5.295

2
Na  7.363 -0.013  6.363
Cl  9.503  0.993  6.881

2
Na  7.009 -0.322  5.146
Cl 10.191  0.244  6.529

2
Na  7.822  0.411  6.148
Cl  9.960  0.540  6.991

2
Na  8.169  0.676  4.689
Cl  9.041  0.546  7.293

2
Na  7.267  0.830  5.802
Cl  9.494  2.015  7.330

2
Na  7.703  0.104  7.169
Cl  9.381  2.539  8.133

2
Na  7.952 -0.150  6.769
Cl  8.712  3.309  7.487

2
Na  7.900  0.272  7.501
Cl  9.349  3.295  9.385

2
Na  6.446  0.064  8.949
Cl  9.870  2.301  8.160

2
Na  7.112 -0.535  9.718
Cl  9.310  1.704  9.454

2
Na  6.518  0.215  9.894
Cl  9.666  1.529  9.798

2
Na  7.816  0.698  9.865
Cl  8.626  0.867 11.456

2
Na  6.893  2.025  9.896
Cl  6.391  0.462 10.769

2
Na  7.144  3.944  8.924
Cl  5.667 -0.324 11.313

2
Na  6.182  4.165  9.821
Cl  5.338  0.162 10.938

2
Na  5.641  2.406 -9.530
Cl  6.165 -0.055 -9.068

2
Na  4.849  1.785 -9.568
Cl  6.716  0.958 -9.524

2
Na  4.428  0.303  9.948
Cl  6.754 -0.067  9.918

2
Na  3.911  0.080  9.195
Cl  5.919 -0.405  9.310

2
Na  3.658 -0.622  9.359
Cl  6.206 -1.438  9.751

2
Na  5.058  1.463  9.927
Cl  6.178 -0.399  9.259

2
Na  6.087  2.153  8.988
Cl  7.353 -0.028  9.109

2
Na  5.907  1.348  9.663
Cl  7.692 -0.532  9.092

2
Na  4.981  2.033 -9.265
Cl  8.719  0.713 -10.143

2
Na  6.630  1.845 -9.730
Cl  9.027  1.691 -10.107

2
Na  7.593 -0.796 -9.437
Cl  9.092  1.197 -10.729

2
Na  8.143 -0.240 -9.090
Cl  8.637  0.590 -10.669

2
Na  8.108  0.061 -8.722
Cl  7.237  0.958 -11.544

2
Na  8.784 -0.505 -8.733
Cl  5.720  0.486 -11.402

2
Na  9.594  0.404 -8.933
Cl  6.391  0.918 -11.222

2
Na  9.030  0.419 -8.303
Cl  7.396  2.121 -11.307

2
Na -9.793 -0.387 -9.026
Cl -13.243  2.832 -11.724

2
Na  9.602 -0.054  9.705
Cl  6.882  2.438  8.862

2
Na  8.883  1.228  8.288
Cl  6.148  2.638  8.660

2
Na  7.915  2.193  7.259
Cl  5.864  3.689  9.064

2
Na  6.588  0.751  7.207
Cl  6.444  2.783  8.781

2
Na  7.071  1.934  7.067
Cl  5.788  2.896  7.984

2
Na  8.186  1.621  6.705
Cl  5.335  4.255  6.729

2
Na  7.240  1.687  6.803
Cl  5.698  3.684  6.293

2
Na  6.391  2.605  6.616
Cl  5.781  2.616  5.789

2
Na  7.602  1.683  8.288
Cl  4.449  0.811  7.120

2
Na  5.447  0.474  8.061
Cl  4.391 -0.281  5.308

2
Na  4.932  0.140  7.122
Cl  4.514 -0.212  5.779

2
Na  5.674 -0.606  6.578
Cl  5.578 -0.474  5.529

2
Na  6.587  0.245  4.165
Cl  6.793 -0.861  3.807

2
Na  6.999 -1.053  5.196
Cl  5.837 -0.112  3.579

2
Na  6.659  0.767  5.125
Cl  5.637  0.972  3.919

2
Na  7.842  0.140  6.095
Cl  6.105  0.929  3.096

2
Na  6.840  2.143  5.915
Cl  6.640  1.703  4.314

2
Na  6.357  1.117  5.567
Cl  6.433  2.837  5.001

2
Na  5.081  1.143  4.734
Cl  5.246  2.794  4.818

2
Na  5.080  0.676  5.548
Cl  6.583  2.859  4.373

2
Na  4.187  0.041  3.836
Cl  3.321  3.419  4.749

2
Na  3.689  0.782  3.390
Cl  3.463  3.898  5.032

2
Na  4.634  2.104  4.300
Cl  3.963  3.493  5.078

2
Na  5.058  2.840  3.231
Cl  4.429  3.103  6.758

2
Na  4.211  3.479  3.936
Cl  4.905  3.561  7.306

2
Na  4.529  4.741  4.505
Cl  5.263  3.340  7.877

2
Na  5.246  4.303  5.235
Cl  5.428  2.388  5.931

2
Na  5.675  4.134  4.923
Cl  5.975  2.269  4.460

2
Na  4.389  3.778  7.156
Cl  5.176  2.736  4.263

2
Na  4.855  3.828  8.367
Cl  4.752  3.697  4.086

2
Na  4.123  4.624  7.874
Cl  5.474  4.801  3.903

2
Na  3.101  4.853  6.749
Cl  5.332  3.563  3.485

2
Na  3.610  5.941  6.565
Cl  5.640  3.896  3.826

2
Na  3.632  6.007  6.895
Cl  6.212  4.313  4.062

2
Na  3.794  5.213  6.172
Cl  5.586  4.302  5.632

2
Na  5.760  6.107  6.251
Cl  4.635  3.604  6.062

2
Na  5.602  6.120  7.141
Cl  5.167  3.773  4.927

2
Na  7.232  7.205  6.249
Cl  5.502  4.939  5.079

2
Na  8.110  5.972  6.689
Cl  4.607  6.249  5.881

2
Na  7.787  6.668  6.609
Cl  5.273  7.326  6.670

2
Na  7.428  6.997  6.267
Cl  6.723  8.072  8.296

2
Na  7.495  4.003  6.797
Cl  8.046  6.131  8.556

2
Na  8.016  4.192  7.380
Cl  8.001  5.045  7.921

2
Na  8.015  3.382  7.335
Cl  8.390  4.276  6.630

2
Na  7.249  3.024  7.168
Cl 10.362  4.988  7.184

2
Na  7.847  3.149  6.420
Cl  9.017  5.046  7.460

2
Na  8.237  4.071  6.443
Cl  9.197  3.836  6.117

2
Na  7.899  4.342  5.675
Cl  9.112  2.164  6.033

2
Na  8.653  3.745  5.618
Cl  8.088  1.394  7.246

2
Na  8.486  3.691  5.663
Cl  8.205  1.267  6.632

2
Na  7.182  4.032  6.335
Cl  6.985  2.955  6.368

2
Na  6.079  5.356  6.273
Cl  6.305  3.543  8.126

2
Na  5.811  5.966  6.249
Cl  4.551  3.609  8.792

2
Na  4.404  4.970  6.652
Cl  5.615  4.044  8.413

2
Na  5.058  5.218  8.286
Cl  5.622  3.150  8.384

2
Na  3.626  6.352 -9.867
Cl  4.736  2.638 -10.073

2
Na  2.805  5.039  9.612
Cl  3.886  2.609  9.577

2
Na  1.951  4.515  8.089
Cl  3.224  2.184 10.097

2
Na  0.509  3.959  7.787
Cl  2.527  1.703  8.565

2
Na  0.580  5.012  6.985
Cl  3.096  1.905  6.861

2
Na  0.556  4.631  6.411
Cl  2.597  1.891  7.085

2
Na  1.995  3.323  6.947
Cl  3.172  3.183  8.601

2
Na  2.455  2.939  8.004
Cl  3.337  2.936  6.713

2
Na  1.012  2.705  7.565
Cl  2.961  2.361  8.446

2
Na  0.031  3.446  8.017
Cl  2.825  1.747  8.778

2
Na  0.980  4.221  7.371
Cl  1.716  1.626  8.051

2
Na -0.062  3.107  7.009
Cl  2.108  1.450  6.866

2
Na  0.090  3.921  6.497
Cl  2.167  1.878  6.474

2
Na -1.061  3.569  6.460
Cl  1.730  2.573  6.208

2
Na -1.489  3.454  6.231
Cl  0.751  2.111  4.745

2
Na -0.599  3.372  7.384
Cl -0.877  2.518  4.747

2
Na -0.043  4.742  8.482
Cl -1.209  1.480  5.574

2
Na  0.301  4.911  7.765
Cl -1.761  2.668  6.626

2
Na  0.421  3.803  7.925
Cl  0.340  1.974  7.655

2
Na  0.327  4.044  8.328
Cl  0.289  2.927  7.300

2
Na -0.603  3.674  8.697
Cl  0.497  1.414  6.943

2
Na  0.897  4.797  7.811
Cl  0.066  2.917  6.951

2
Na  1.541  6.090  7.604
Cl  0.494  3.574  8.271

2
Na  1.653  4.304  7.514
Cl  0.745  2.297  8.525

2
Na  0.806  5.471  8.617
Cl  1.133  4.175  8.401

2
Na  2.072  6.231  8.351
Cl  2.102  3.816  6.958

2
Na  2.295  6.299  9.065
Cl  2.180  4.553  6.672

2
Na  3.449  4.827  8.602
Cl  4.350  5.540  6.534

2
Na  3.135  5.710  9.120
Cl  5.198  5.374  7.827

2
Na  3.196  7.762  8.791
Cl  4.183  5.665  8.592

2
Na  4.900  7.096  9.521
Cl  4.029  5.328 10.328

2
Na  3.720  7.644  8.162
Cl  3.128  5.793 10.523

2
Na  4.002  6.531  8.913
Cl  4.027  5.583 10.901

2
Na  3.497  6.483  9.120
Cl  2.979  6.376 10.926

2
Na  4.560  6.741  8.752
Cl  4.611  6.198 10.719

2
Na  4.461  5.055  9.215
Cl  5.654  6.656 10.745

2
Na  4.413  4.848  9.330
Cl  5.140  5.528 10.846

2
Na  4.919  6.858 -9.915
Cl  5.137  5.024 -9.392

2
Na  4.714  6.920 -9.805
Cl  5.585  4.821 -10.826

2
Na  4.902  7.399 -9.611
Cl  5.576  6.601 -11.816

2
Na  5.557  7.488  9.970
Cl  5.454  6.854  7.662

2
Na  4.544  7.469  9.929
Cl  3.868  5.293  8.606

2
Na  4.087  5.738  8.766
Cl  3.461  3.529  9.318

2
Na  4.504  6.997  8.698
Cl  3.430  3.933  9.619

2
Na  3.979  7.293 -9.639
Cl  3.999  3.302 -9.968

2
Na  3.292  6.360  9.878
Cl  3.934  3.402  7.830

2
Na  3.715  5.630  8.524
Cl  2.789  3.719  8.799

2
Na  4.258  5.653  8.281
Cl  3.799  4.517  9.948

2
Na  4.227  5.315  8.837
Cl  3.048  5.336  9.841

2
Na  4.964  5.250  8.418
Cl  2.000  6.528  9.458

2
Na  3.872  4.402  9.096
Cl  0.690  5.743  8.948

2
Na  2.923  3.947  9.297
Cl  1.136  4.835  8.625

2
Na  2.781  3.412  9.889
Cl  1.622  4.492  9.304

2
Na  3.895  3.015 -8.369
Cl  1.505  4.722 -9.083

2
Na  3.530  2.242 -8.684
Cl  3.487  5.096 -8.800

2
Na  3.076  2.456 -8.104
Cl  4.651  4.365 -8.677

2
Na  2.090  2.026 -9.068
Cl  4.316  4.518 -10.014

2
Na  2.073  1.709 -8.014
Cl  3.046  4.249 -9.797

2
Na  2.244  2.455 -8.107
Cl  2.125  4.956 -9.146

2
Na  3.214  1.985 -8.138
Cl  2.978  4.937 -8.335

2
Na  2.817  2.053 -6.666
Cl  2.370  3.267 -7.704

2
Na  2.914  3.335 -6.348
Cl  3.339  2.347 -8.273

2
Na  2.250  3.033 -7.062
Cl  4.756  4.230 -8.862

2
Na  2.541  3.081 -7.458
Cl  4.600  2.636 -8.786

2
Na  2.569  2.284 -7.372
Cl  5.014  2.732 -9.367

2
Na  2.867  3.350 -6.395
Cl  5.060  3.169 -8.051

2
Na  3.982  3.354 -6.268
Cl  4.931  2.031 -10.148

2
Na  4.039  2.793 -6.847
Cl  5.564  2.758 -9.469

2
Na  4.215  2.948 -7.503
Cl  4.916  1.917 -9.652

2
Na  4.642  1.546 -6.258
Cl  4.377  1.755 -9.342

2
Na  3.811  1.132 -7.722
Cl  3.942  1.889 -9.848

2
Na  5.649  2.219 -7.675
Cl  3.688  1.565 -9.691

2
Na  6.313  2.227 -8.050
Cl  3.236  2.158 -8.437

2
Na  5.498  1.635 -9.075
Cl  5.063  1.940 -8.860

2
Na  5.309  0.623  9.887
Cl  4.791  3.511 11.461

2
Na  5.152  0.375  9.204
Cl  4.211  2.341 11.963

2
Na  4.960  0.607 -9.946
Cl  4.453  0.059 -7.703

2
Na  4.745 -0.849  9.306
Cl  3.966 -2.183 11.539

2
Na  4.389 -0.192 -9.069
Cl  4.773 -1.938 -8.850

2
Na  2.728  1.398 -7.901
Cl  4.112 -2.028 -7.595

2
Na  5.208  0.749 -6.937
Cl  4.267 -1.678 -7.389

2
Na  5.672 -1.112 -6.533
Cl  4.091 -0.022 -8.841

2
Na  5.502  0.352 -7.129
Cl  3.296  0.116 -8.579

2
Na  6.360  0.222 -7.113
Cl  4.657 -0.184 -7.946

2
Na  7.313 -1.843 -7.186
Cl  5.108 -1.246 -7.376

2
Na  6.800 -1.058 -6.785
Cl  4.675  0.663 -8.660

2
Na  5.910 -1.489 -7.326
Cl  4.856  0.681 -8.921

2
Na  6.745 -1.171 -7.512
Cl  5.430  0.247 -8.499

2
Na  5.379 -1.184 -8.099
Cl  7.083 -0.305 -7.770

2
Na  5.538 -0.068 -7.582
Cl  6.855  0.460 -8.168

2
Na  6.354  1.133 -8.157
Cl  6.647  1.595 -9.779

2
Na  7.308 -0.277 -6.819
Cl  5.936  1.053 -8.939

2
Na  7.346 -0.575 -6.201
Cl  7.811  0.839 -8.287

2
Na  7.043 -0.283 -6.690
Cl  7.389  0.593 -9.285

2
Na  8.356  0.523 -7.652
Cl  8.376 -0.614 -9.400

2
Na  6.911  1.835 -6.802
Cl  8.475  0.893 -7.950

2
Na  6.157  0.968 -7.039
Cl  8.259  1.311 -6.417

2
Na  7.428  2.812 -7.349
Cl  7.948  2.561 -4.856

2
Na  6.993  2.506 -7.869
Cl  7.435  2.856 -4.901

2
Na  6.136  2.899 -7.720
Cl  8.644  2.785 -4.919

2
Na  6.440  2.972 -6.756
Cl  7.732  2.879 -5.623

2
Na  4.749  2.658 -8.358
Cl  7.291  2.935 -6.607

2
Na  5.189  3.600 -8.473
Cl  6.528  2.278 -7.718

2
Na  6.723  4.690 -7.781
Cl  6.549  3.152 -7.581

2
Na  5.609  4.805 -8.102
Cl  5.825  2.512 -7.872

2
Na  5.162  5.556 -6.654
Cl  5.458  2.714 -8.495

2
Na  6.374  5.840 -6.895
Cl  6.440  4.619 -8.192

2
Na  8.002  4.650 -7.237
Cl  6.183  4.365 -8.702

2
Na  8.374  4.816 -7.016
Cl  5.289  4.446 -7.986

2
Na  8.225  3.396 -7.399
Cl  6.046  2.817 -9.450

2
Na  8.649  4.105 -7.213
Cl  5.892  2.602 -7.525

2
Na  7.648  3.365 -8.980
Cl  4.999  2.227 -8.125

2
Na  7.861  3.111 -8.569
Cl  4.693  0.416 -8.699

2
Na  6.968  2.407 -7.519
Cl  6.181 -0.032 -10.071

2
Na  7.386  2.522 -8.253
Cl  4.397  0.456 -9.363

2
Na  8.744  2.332 -9.145
Cl  4.708  0.913 -10.414

2
Na  8.371  2.881 -9.519
Cl  3.783  1.373 -10.210

2
Na  9.293  2.318 -8.965
Cl  4.556  0.561 -9.797

2
Na  8.536  1.936 -9.153
Cl  5.366  1.072 -11.052

2
Na  7.201  1.443  8.647
Cl  3.932  1.220  8.777

2
Na  7.248  0.682 -9.712
Cl  4.818  0.654 -9.524

2
Na  6.395 -0.034 -9.643
Cl  4.140  1.304 -11.231

2
Na  5.785 -1.543  8.309
Cl  3.883  1.670  8.776

2
Na  5.912 -0.838  7.527
Cl  5.755  1.576  9.360

2
Na  6.061 -0.073  7.506
Cl  6.458  2.044  9.065

2
Na  5.768  0.971  7.111
Cl  7.314  1.657  7.664

2
Na  5.841  0.756  5.718
Cl  7.454  2.628  6.856

2
Na  5.978  0.515  6.558
Cl  8.739  2.166  6.220

2
Na  6.490  0.846  7.150
Cl  8.559  1.238  5.436

2
Na  6.306 -0.303  7.319
Cl  9.133  0.926  6.434

2
Na  7.493  0.328  6.615
Cl  8.234  2.633  6.925

2
Na  6.169 -0.888  6.463
Cl  6.159  1.262  6.993

2
Na  5.280  0.073  6.257
Cl  6.578  1.578  6.288

2
Na  4.351 -0.159  6.443
Cl  7.101  1.280  6.370

2
Na  4.941  2.495  6.640
Cl  5.879  1.273  7.533

2
Na  4.352  1.453  6.360
Cl  5.967  2.017  8.060

2
Na  4.458  1.031  6.793
Cl  5.406  1.009  8.575

2
Na  4.630  0.678  7.342
Cl  5.842  0.919  8.242

2
Na  4.828  0.384  7.860
Cl  4.035  3.100  9.399

2
Na  4.500 -0.031  8.288
Cl  3.748  1.311  9.226

2
Na  4.371 -1.003  8.681
Cl  2.908  1.644  8.520

2
Na  3.348 -0.825  7.145
Cl  2.640  2.708  8.076

2
Na  4.267  0.592  6.690
Cl  1.702  3.342  7.497

2
Na  4.488  2.639  5.698
Cl  2.243  4.988  6.390

2
Na  3.238  1.756  6.763
Cl  3.255  5.229  4.877

2
Na  3.827  2.791  6.550
Cl  4.061  4.769  4.693

2
Na  2.253  4.491  5.457
Cl  5.305  3.926  5.694

2
Na  2.563  5.643  5.751
Cl  5.103  4.005  6.557

2
Na  2.562  5.686  4.251
Cl  4.228  6.060  6.810

2
Na  1.932  7.742  5.093
Cl  3.618  7.512  7.257

2
Na  0.863  8.049  4.859
Cl  3.032  7.341  6.296

2
Na  0.426  8.593  4.092
Cl  2.094  6.987  6.151

2
Na  1.625  9.934  4.686
Cl  0.748  6.458  5.808

2
Na  1.311  8.709  4.530
Cl  0.258  7.347  6.100

2
Na -0.164  8.797  4.561
Cl -1.024  7.907  5.781

2
Na -1.184  9.417  4.779
Cl -0.965  6.515  4.743

2
Na -1.694  8.802  4.533
Cl -1.624  7.385  6.007

2
Na -1.281  9.453  4.022
Cl -2.040  8.740  6.262

2
Na -0.551  8.267  5.875
Cl -2.983  8.465  5.219

2
Na  0.209  7.771  4.490
Cl -3.507  8.485  6.010

2
Na -0.327  7.816  4.125
Cl -4.501  6.735  5.711

2
Na -1.569  7.710  4.691
Cl -4.549  5.910  6.303

2
Na -1.212  7.628  4.572
Cl -4.137  5.292  6.759

2
Na -2.932  7.708  5.883
Cl -3.707  5.642  6.480

2
Na -3.318  7.527  5.541
Cl -3.629  5.054  4.986

2
Na -4.321  7.819  5.030
Cl -3.295  4.735  4.350

2
Na -4.077  7.386  4.069
Cl -3.234  5.143  4.720

2
Na -4.290  7.407  4.161
Cl -2.538  5.080  5.285

2
Na -3.381  7.284  5.035
Cl -1.368  5.604  4.812

2
Na -3.132  5.926  5.489
Cl -0.627  3.888  4.553

2
Na -2.813  6.251  5.682
Cl -0.909  4.719  6.137

2
Na -1.658  6.418  6.470
Cl -1.884  4.181  6.759

2
Na -0.516  7.056  6.778
Cl -1.478  4.596  7.406

2
Na -0.430  6.878  5.506
Cl -1.535  3.533  6.009

2
Na -1.818  7.007  5.280
Cl -2.781  3.292  6.111

2
Na -1.995  6.442  7.133
Cl -1.760  3.379  5.832

2
Na -2.456  7.137  7.721
Cl -2.032  3.114  7.548

2
Na -2.619  6.054  9.042
Cl -1.763  2.954  8.117

2
Na -2.330  6.203  8.716
Cl -1.267  4.303  8.467

2
Na -3.006  6.698  7.284
Cl -0.761  4.751  8.439

2
Na -2.879  7.216  7.883
Cl -0.578  5.286  7.803

2
Na -1.927  6.535  7.580
Cl -0.646  6.616  7.969

2
Na -2.214  5.799  6.498
Cl -0.576  8.819  7.968

2
Na -2.949  7.263  5.376
Cl -1.648  7.473  8.446

2
Na -3.005  7.203  6.659
Cl -0.595  6.329  8.213

2
Na -1.305  7.445  5.468
Cl -0.310  6.339  9.382

2
Na -0.369  7.866  7.450
Cl -1.391  6.017  9.439

2
Na  0.472  8.450  7.817
Cl -2.187  7.208 10.121

2
Na  1.113  8.712  7.846
Cl -1.803  6.290  9.718

2
Na  0.389  8.969  8.512
Cl -1.797  7.139  9.106

2
Na -0.522  8.483  8.363
Cl -0.810  5.755  7.587

2
Na -0.412  8.689  7.131
Cl -0.874  6.640  6.263

2
Na -1.717  7.022  7.592
Cl -1.302  6.577  7.660

2
Na -3.412  9.014  6.388
Cl -2.332  8.091  9.167

2
Na -3.011  8.878  5.286
Cl -2.445  8.007  8.093

2
Na -3.095  8.402  6.230
Cl -1.903  8.403  8.774

2
Na -3.425  7.715  6.745
Cl -3.123  7.783 10.047

2
Na -4.105  7.130  7.240
Cl -1.537  6.751  8.501

2
Na -4.645  6.889  7.940
Cl -1.342  6.941  8.133

2
Na -4.134  5.860  7.907
Cl -0.926  5.656  7.897

2
Na -2.265  5.012  6.667
Cl -0.300  4.228  7.807

2
Na -1.285  5.098  6.882
Cl -0.121  5.878  9.600

2
Na -0.686  5.161  6.784
Cl -0.385  5.052  9.799

2
Na -1.186  6.327  5.816
Cl -0.856  5.109  8.975

2
Na -1.370  6.227  4.891
Cl -1.655  5.296  8.305

2
Na -1.243  5.804  5.044
Cl -2.287  5.494  7.874

2
Na -0.514  5.842  5.294
Cl -1.535  5.154  8.675

2
Na -1.690  5.849  6.505
Cl -3.396  3.632  7.371

2
Na -0.681  6.729  5.993
Cl -3.332  4.241  6.242

2
Na -1.599  5.867  5.167
Cl -4.017  5.199  6.709

2
Na -2.113  5.745  4.661
Cl -3.802  5.409  7.552

2
Na -1.695  5.049  5.550
Cl -4.214  4.696  6.225

2
Na -2.636  3.060  4.757
Cl -3.649  3.258  6.969

2
Na -2.690  3.825  4.723
Cl -4.203  2.317  4.936

2
Na -4.115  3.834  4.465
Cl -5.603  1.120  5.497

2
Na -2.385  2.389  3.974
Cl -3.952  1.028  6.708

2
Na -1.630  1.498  3.268
Cl -2.867 -0.027  7.077

2
Na -1.399  0.716  3.990
Cl -1.903 -0.239  6.845

2
Na -2.177  0.772  3.718
Cl -1.265 -0.109  5.977

2
Na -1.384  1.073  3.720
Cl -0.772 -0.497  4.706

2
Na -2.164  0.830  3.057
Cl -1.610  0.094  5.093

2
Na -2.446  0.201  3.415
Cl -1.265 -1.595  5.703

2
Na -2.893  0.615  3.874
Cl -1.466 -2.066  5.254

2
Na -2.337  0.233  4.167
Cl -1.591 -1.560  4.863

2
Na -2.982  1.099  6.753
Cl -2.904 -0.762  4.375

2
Na -2.933  1.078  5.623
Cl -3.973  1.308  2.964

2
Na -2.289  2.366  5.876
Cl -4.527  1.801  3.389

2
Na -3.208  2.347  4.706
Cl -2.282  2.866  3.120

2
Na -2.723  3.259  4.477
Cl -0.260  3.865  2.955

2
Na -3.170  3.692  4.080
Cl -0.663  3.044  3.830

2
Na -4.061  4.401  5.501
Cl -2.065  2.389  2.827

2
Na -3.441  5.121  3.189
Cl -2.244  1.948  3.430

2
Na -4.074  5.258  3.443
Cl -0.832  4.086  3.607

2
Na -4.134  4.306  3.652
Cl -1.847  3.855  3.666

2
Na -3.808  4.550  3.247
Cl -2.916  3.379  3.411

2
Na -5.337  5.731  3.327
Cl -1.940  4.489  3.409

2
Na -4.930  5.917  4.164
Cl -1.512  3.640  2.633

2
Na -4.314  5.546  4.815
Cl -3.696  4.381  4.690

2
Na -3.715  4.993  5.626
Cl -4.689  4.051  5.512

2
Na -4.616  3.495  5.977
Cl -4.058  3.124  4.958

2
Na -4.322  2.977  6.580
Cl -5.164  2.629  3.309

2
Na -4.168  3.464  6.726
Cl -6.190  1.625  3.516

2
Na -4.679  2.509  7.451
Cl -5.708  1.223  3.859

2
Na -4.591  1.836  7.596
Cl -3.640  1.426  6.050

2
Na -4.691  2.648  7.406
Cl -3.683  0.798  6.450

2
Na -5.575  1.521  7.557
Cl -4.171  1.507  5.940

2
Na -7.138  2.269  8.527
Cl -5.326  1.604  6.070

2
Na -6.497  1.641  8.278
Cl -5.252  1.812  6.071

2
Na -6.126  1.577  7.349
Cl -5.958  1.005  5.451

2
Na -6.021  1.365  7.014
Cl -5.755  1.732  5.088

2
Na -6.914  3.770  6.776
Cl -6.282  1.639  4.863

2
Na -6.921  2.740  8.661
Cl -6.173  3.514  6.388

2
Na -7.136  1.654  8.942
Cl -5.518  3.645  7.427

2
Na -6.677  0.530  8.218
Cl -6.332  2.345  7.603

2
Na -6.718  2.508  8.647
Cl -6.388  2.275  6.110

2
Na -8.213  1.214  7.887
Cl -6.322  1.597  4.060

2
Na -9.366  1.155  6.616
Cl -7.685  0.964  3.989

2
Na -9.043  3.284  6.204
Cl -8.294  1.433  3.940

2
Na -9.468  2.531  6.113
Cl -7.558  1.322  5.013

2
Na -8.437  3.063  5.725
Cl -8.435  0.667  6.312

2
Na -9.231  1.492  5.587
Cl -8.632  0.023  5.877

2
Na -8.275  1.453  4.102
Cl -9.595  1.648  5.903

2
Na -8.278  0.565  5.087
Cl -9.526  1.347  6.433

2
Na -9.091 -1.286  5.844
Cl -8.636  1.175  4.911

2
Na -8.993 -1.897  5.948
Cl -6.283  1.242  5.741

2
Na -8.562 -1.403  5.804
Cl -7.286  1.176  5.997

2
Na -9.380 -0.744  6.298
Cl -7.455  1.422  6.168

2
Na -7.584 -1.477  5.840
Cl -6.452  1.714  7.874

2
Na -7.370 -1.321  5.802
Cl -7.448  0.886  7.124

2
Na -7.383 -2.221  5.732
Cl -6.226 -0.039  8.193

2
Na -8.073 -1.513  7.169
Cl -6.550 -0.809  7.303

2
Na -6.940 -0.586  8.460
Cl -6.594  0.092  7.057

2
Na -6.797 -0.642  9.435
Cl -7.512 -0.371  6.009

2
Na -6.692  0.229  8.729
Cl -9.000 -0.218  6.799

2
Na -7.021 -0.368  8.396
Cl -8.697 -0.499  8.555

2
Na -7.337  1.199  9.030
Cl -8.891  0.111  6.857

2
Na -7.475  0.107  8.999
Cl -7.349  0.145  7.178

2
Na -8.632  0.172  8.876
Cl -6.659 -0.391  7.504

2
Na -9.937  1.322  8.356
Cl -6.690 -0.746  7.970

2
Na -9.695  1.352  7.977
Cl -8.447 -1.627  7.296

2
Na -9.025  0.628  7.283
Cl -8.556 -0.731  6.924

2
Na -9.596  0.617  6.642
Cl -8.785 -0.668  7.272

2
Na -9.176 -0.058  6.474
Cl -8.902 -2.866  5.519

2
Na -8.685 -0.901  5.183
Cl -9.934 -1.965  4.332

2
Na -9.042  0.059  3.318
Cl -9.242 -1.673  5.260

2
Na  9.727 -0.784  3.679
Cl 12.547 -0.585  4.976

2
Na  9.957 -1.951  2.762
Cl 11.554 -0.355  4.279

2
Na -9.933 -0.884  3.962
Cl -7.662  0.398  4.804

2
Na  9.829 -0.988  1.921
Cl 11.236  0.600  4.816

2
Na  9.824  0.648  2.128
Cl 11.013  0.994  2.381

2
Na  9.814  1.001  3.847
Cl 11.112 -0.914  2.893

2
Na -9.888  0.572  4.080
Cl -10.224 -0.086  1.906

2
Na -8.642  1.061  4.208
Cl -10.236 -0.756  2.111

2
Na -9.444  0.655  2.960
Cl -8.395 -0.510  2.132

2
Na -7.362  0.794  1.650
Cl -6.274 -1.173  2.395

2
Na -7.750  0.493  0.564
Cl -5.703 -1.311  2.217

2
Na -6.768  1.565  2.269
Cl -5.260 -1.434  1.853

2
Na -5.692  0.703  1.479
Cl -6.108 -0.673  1.209

2
Na -5.382 -0.462  2.837
Cl -6.297 -1.514  1.408

2
Na -6.546 -1.134  1.807
Cl -4.188 -2.060  0.714

2
Na -6.752 -0.851  2.325
Cl -4.077 -1.554  0.663

2
Na -5.677  0.565  3.333
Cl -3.899 -1.061  2.241

2
Na -7.659  0.296  4.455
Cl -4.631 -1.521  2.531

2
Na -7.456  0.560  5.128
Cl -5.818 -1.865  1.760

2
Na -7.410  0.356  4.434
Cl -6.274 -1.126  2.992

2
Na -7.110  0.167  4.068
Cl -6.199  0.505  2.685

2
Na -6.647  0.513  4.424
Cl -6.842  2.099  3.429

2
Na -5.667  1.338  4.249
Cl -7.172  2.249  4.381

2
Na -4.915  1.278  3.616
Cl -6.554  2.563  4.307

2
Na -5.042  1.495  4.415
Cl -5.909  3.165  5.460

2
Na -6.283  0.976  4.056
Cl -4.523  3.662  6.230

2
Na -6.579  0.836  4.814
Cl -4.866  3.233  6.318

2
Na -5.284  0.560  4.558
Cl -3.493  3.174  5.381

2
Na -4.191  1.843  5.883
Cl -5.199  4.061  5.897

2
Na -3.713  2.721  6.085
Cl -4.811  3.616  4.121

2
Na -4.396  3.834  5.911
Cl -5.657  4.154  4.614

2
Na -2.973  3.847  5.801
Cl -4.966  5.134  3.893

2
Na -1.721  4.319  5.567
Cl -4.528  6.358  4.151

2
Na -2.383  6.222  6.017
Cl -4.669  7.753  3.909

2
Na -2.735  5.917  6.146
Cl -4.108  7.656  2.909

2
Na -2.316  5.467  5.895
Cl -3.205  6.658  3.356

2
Na -2.423  6.389  6.400
Cl -3.862  6.813  3.329

2
Na -3.257  6.642  5.789
Cl -3.878  6.813  3.072

2
Na -4.220  6.336  4.641
Cl -4.873  7.247  3.368

2
Na -2.926  6.966  4.879
Cl -4.689  8.018  2.683

2
Na -4.296  6.096  5.149
Cl -4.776  8.495  2.738

2
Na -5.050  6.599  4.985
Cl -4.780  8.015  2.687

2
Na -4.948  7.443  3.699
Cl -5.024  8.173  2.536

2
Na -5.192  8.273  4.293
Cl -5.914  8.002  3.202

2
Na -4.837  8.821  3.288
Cl -7.513  7.616  2.548

2
Na -4.604  7.571  3.982
Cl -7.193  9.013  2.602

2
Na -3.859  8.339  3.623
Cl -5.491  9.312  3.353

2
Na -3.585  8.222  3.070
Cl -5.375  8.739  3.575

2
Na -4.317  9.887  2.726
Cl -5.105  9.887  4.503

2
Na -4.800 -8.722  3.124
Cl -6.158 -8.827  4.424

2
Na -4.479 -8.632  3.032
Cl -7.503 -9.692  3.205

2
Na -6.641 -8.210  1.138
Cl -7.668 -9.218  2.970

2
Na -7.758 -9.834  0.120
Cl -6.601 -10.371  2.199

2
Na -8.652  9.155  1.834
Cl -5.812  9.912  1.019

2
Na -8.096 -9.794  2.072
Cl -6.668 -9.895  1.676

2
Na -8.485 -9.988  2.409
Cl -7.363 -10.594  1.278

2
Na -7.226 -9.909  1.206
Cl -6.900 -13.048  1.669

2
Na -7.400 -9.750  2.622
Cl -7.324 -12.010  1.514

2
Na -7.976 -9.667  2.592
Cl -6.846 -11.844  0.668

2
Na -9.193 -9.906  3.013
Cl -6.627 -9.596  0.569

2
Na  9.913 -9.269  4.649
Cl 13.192 -9.353  0.519

2
Na -9.334 -8.501  5.010
Cl -6.032 -9.956  2.055

2
Na -8.099 -9.590  5.789
Cl -7.148 -9.855  2.111

2
Na -8.002 -9.938  5.486
Cl -7.369 -8.464  1.915

2
Na -8.682  8.722  5.220
Cl -7.346 11.243  2.066

2
Na -9.729  8.894  4.612
Cl -8.193 11.052  1.588

2
Na -9.079  7.771  2.802
Cl -8.135 10.342  1.472

2
Na  9.271  7.870  2.519
Cl 11.873  9.432  2.196

2
Na -9.078  7.699  3.075
Cl -8.367  8.837  1.877

2
Na -7.456  7.210  1.463
Cl -9.290  8.997  1.966

2
Na -9.204  7.087  0.362
Cl -9.901  7.417  2.066

2
Na  9.785  7.037 -0.714
Cl 10.670  6.185  1.136

2
Na  8.197  7.230  0.036
Cl 10.749  5.655  2.118

2
Na  7.798  6.044  0.744
Cl 10.757  5.351  0.864

2
Na  8.385  5.703  0.182
Cl  9.439  4.165  0.953

2
Na  9.890  5.139  1.178
Cl  8.566  5.255  1.105

2
Na -9.998  5.728  2.885
Cl -11.826  4.391  1.287

2
Na -9.076  5.268  2.061
Cl -11.921  3.773  0.643

2
Na -9.943  5.371  2.885
Cl -12.154  2.976  0.208

2
Na -9.722  5.460  1.283
Cl -11.260  3.140  0.306

2
Na  9.782  5.126  2.317
Cl  8.934  2.252  1.797

2
Na -9.056  5.283  2.758
Cl -11.638  3.723  0.809

2
Na  9.787  6.105  2.526
Cl  8.766  4.936  1.064

2
Na  9.198  6.514  1.390
Cl  9.198  4.876  0.578

2
Na  9.097  5.706  1.122
Cl  9.135  4.606  2.620

2
Na  9.194  6.794  1.315
Cl  7.609  5.049  2.176

2
Na  9.290  6.941  3.098
Cl  9.239  5.393  1.787

2
Na  7.940  7.246  2.287
Cl  9.350  5.081  1.664

2
Na  7.262  6.926  0.099
Cl  9.498  6.375  0.031

2
Na  6.290  8.278  0.618
Cl  9.847  7.871 -0.697

2
Na  7.520  9.864 -0.686
Cl  9.932  7.086 -0.560

2
Na  8.319  9.184  0.500
Cl  9.993  7.700 -0.473

2
Na  7.828  7.785  0.946
Cl 11.275  7.249 -0.339

2
Na  7.515  8.375  0.916
Cl 10.940  8.116  0.366

2
Na  8.021  8.903  1.643
Cl 12.085  8.921  1.282

2
Na  9.119  9.187  2.890
Cl 11.204  8.648  0.933

2
Na  8.796  8.308  1.959
Cl 11.324  9.089  0.338

2
Na  9.757  8.646  1.669
Cl 11.892  7.469  1.432

2
Na -9.987  9.233  0.141
Cl -8.191  6.553  0.754

2
Na  9.411  9.449 -0.576
Cl 11.458  8.676  2.082

2
Na  9.143  9.421 -0.629
Cl 12.324  9.194  0.721

2
Na  9.584  9.291  0.858
Cl 12.114  8.909  0.242

2
Na  9.478  8.938  1.399
Cl 13.216  9.134 -0.685

2
Na -8.864 -9.882  1.783
Cl -7.320 -11.854 -0.438

2
Na -9.279  9.480  1.838
Cl -7.784  7.830 -0.549

2
Na -7.622  9.870  2.085
Cl -6.221  9.769 -0.175

2
Na -8.637  9.349  2.262
Cl -7.055  9.890 -0.050

2
Na -9.519 -9.387  1.759
Cl -6.042 -11.551 -0.201

2
Na -9.680  9.835  1.818
Cl -5.539  8.626  1.031

2
Na -9.124  9.425  1.679
Cl -7.151  7.792  0.766

2
Na -8.944  9.031  1.248
Cl -7.172  7.510  0.904

2
Na -9.147  7.582  1.596
Cl -10.273  5.358  0.736

2
Na -9.932  7.507  0.346
Cl -9.528  5.236 -0.838

2
Na  9.828  6.900 -0.925
Cl  9.878  4.224 -0.101

2
Na  9.781  5.593 -1.008
Cl 10.909  4.980 -0.090

2
Na  8.954  5.255 -0.790
Cl 10.334  6.097  0.725

2
Na  9.704  5.649 -0.531
Cl 10.895  6.467  0.403

2
Na  8.975  5.922 -0.422
Cl 10.855  5.892 -0.069

2
Na  9.223  4.638  1.448
Cl  9.681  4.373 -0.563

2
Na  9.528  4.840  2.044
Cl 11.207  5.239  1.314

2
Na -9.960  5.389  1.109
Cl -8.146  6.227  1.412

2
Na  9.377  4.898  1.330
Cl 12.358  6.138  3.150

2
Na -9.866  3.720 -0.662
Cl -7.964  6.414  2.626

2
Na -8.601  6.108 -0.926
Cl -7.380  5.517  1.716

2
Na -9.002  4.997 -0.656
Cl -9.140  6.429  1.942

2
Na -9.504  3.977  1.239
Cl -7.658  5.980  1.229

2
Na -9.557  4.627  2.233
Cl -8.397  6.520  0.636

2
Na -8.764  5.851  1.168
Cl -8.091  5.101  1.837

2
Na -8.688  6.338  0.230
Cl -8.023  4.519  2.215

2
Na -8.209  6.465  0.566
Cl -6.748  5.548  0.993

2
Na -7.065  7.864  0.852
Cl -6.479  7.325 -0.042

2
Na -7.436  7.936  1.324
Cl -5.611  8.193  0.620

2
Na -6.682  9.188  1.148
Cl -5.639  9.733 -0.061

2
Na -7.670  9.326  1.979
Cl -5.477 10.740  0.928

2
Na -7.868  9.984  1.453
Cl -5.060 11.415  0.515

2
Na -7.776  9.838  0.861
Cl -4.813 10.986  0.917

2
Na -6.728 -8.623 -0.755
Cl -5.451 -9.475  0.686

2
Na -7.114 -9.424 -0.928
Cl -4.124 -10.223  2.510

2
Na -6.014 -9.245 -0.247
Cl -3.764 -8.896  1.797

2
Na -6.134  8.908  1.110
Cl -4.891 10.707  0.840

2
Na -5.988  9.259  1.379
Cl -5.422 10.709 -1.196

2
Na -4.992  9.804  0.773
Cl -6.484 10.590 -2.568

2
Na -5.026 -9.671 -0.336
Cl -6.587 -9.445 -1.596

2
Na -6.179 -9.913  0.875
Cl -6.388 -9.096 -1.971

2
Na -6.596 -9.169  0.765
Cl -7.590 -10.369 -1.086

2
Na -6.195  9.000  0.802
Cl -7.035  9.150 -0.434

2
Na -6.391  9.452  2.281
Cl -6.062 10.296  0.104

2
Na -5.400 -9.625  3.047
Cl -7.339 -10.520  1.688

2
Na -5.400 -9.981  3.355
Cl -7.632 -9.925  2.035

2
Na -6.370  9.953  4.861
Cl -7.188 11.027  2.448

2
Na -7.964 -9.893  3.229
Cl -7.245 -7.617  3.194

2
Na -6.731 -9.636  2.754
Cl -7.275 -8.154  4.235

2
Na -6.159  9.421  3.449
Cl -8.178 11.984  4.956

2
Na -7.075 -9.927  3.332
Cl -9.088 -9.280  5.302

2
Na -7.052  8.573  5.034
Cl -8.834  9.727  5.914

2
Na -8.013  7.736  4.089
Cl -8.740  9.503  7.086

2
Na -9.350  9.360  4.337
Cl -7.801 10.018  5.839

2
Na -9.866  9.701  3.697
Cl -8.243 10.820  3.566

2
Na -8.875 -9.641  3.353
Cl -7.451 -7.822  2.449

2
Na -7.936 -9.446  3.259
Cl -9.437 -7.615  3.398

2
Na -7.840  9.785  2.888
Cl -8.142 11.577  3.964

2
Na -6.860 -9.706  1.380
Cl -7.290 -9.528  4.430

2
Na -6.054  9.476  1.663
Cl -7.110 10.045  4.216

2
Na -6.289  9.607  0.902
Cl -6.515 10.273  4.042

2
Na -5.952  9.867  1.043
Cl -6.854  8.443  5.029

2
Na -5.555  7.903  2.508
Cl -5.887  7.380  5.154

2
Na -6.453  8.430  3.175
Cl -5.909  8.274  5.548

2
Na -5.344  7.010  2.271
Cl -4.746  8.221  6.182

2
Na -5.057  8.231  3.289
Cl -4.336  8.182  6.393

2
Na -4.998  7.438  3.292
Cl -3.998  8.164  6.948

2
Na -5.009  7.836  2.646
Cl -4.813  7.269  7.447

2
Na -4.390  8.624  4.325
Cl -4.814  7.578  6.316

2
Na -4.672  7.234  3.812
Cl -3.976  8.224  6.547

2
Na -3.426  9.046  4.313
Cl -4.064  7.205  7.351

2
Na -1.654  7.981  4.251
Cl -3.622  7.995  6.400

2
Na -1.022  8.236  4.132
Cl -2.901  6.583  6.687

2
Na -1.737  8.194  5.164
Cl -2.335  9.399  6.571

2
Na -2.786  7.792  5.668
Cl -2.680  9.105  6.850

2
Na -2.561  7.096  5.476
Cl -1.427 10.102  6.222

2
Na -3.103  8.122  5.498
Cl -2.204 10.170  6.481

2
Na -3.835  7.316  4.838
Cl -3.417 10.415  5.396

2
Na -1.511  7.890  6.249
Cl -1.674  9.398  5.365

2
Na -0.825  8.685  5.236
Cl -1.651  9.068  5.467

2
Na -1.821  7.789  5.728
Cl -2.394 10.115  5.691

2
Na -0.732  7.603  6.705
Cl -1.438  9.594  5.074

2
Na -0.111  7.396  7.333
Cl -1.447  8.232  5.160

2
Na -0.906  7.365  7.256
Cl -3.293  9.039  4.295

2
Na -1.104  6.657  7.438
Cl -2.266  8.984  5.697

2
Na -0.432  7.058  6.934
Cl -1.910  8.434  4.067

2
Na  0.907  7.265  6.222
Cl -1.954  9.466  4.329

2
Na  0.714  7.667  5.765
Cl -1.880 11.309  3.770

2
Na  1.210  7.563  5.923
Cl -2.130 10.776  4.688

2
Na -0.008  7.422  5.488
Cl -2.191 10.566  4.018

2
Na -0.164  7.424  6.377
Cl -1.261 11.697  4.651

2
Na -0.726  9.103  7.329
Cl -1.448 10.571  4.685

2
Na -1.768  9.135  7.768
Cl -2.261 11.185  4.313

2
Na -2.192  9.169  7.825
Cl -4.042  9.960  4.222

2
Na -2.206  9.086  8.615
Cl -3.646  9.061  4.196

2
Na -1.725  8.220  8.254
Cl -4.459  8.610  5.551

2
Na -3.182  8.577  8.351
Cl -4.277 10.433  6.672

2
Na -2.498  5.967  8.374
Cl -3.832  8.643  6.792

2
Na -2.991  7.362  8.857
Cl -4.241  9.973  7.436

2
Na -2.614  7.695  6.209
Cl -4.733  9.643  7.141

2
Na -2.190  7.132  5.651
Cl -3.901  9.894  7.659

2
Na -3.439  7.445  7.135
Cl -4.708  9.600  8.851

2
Na -3.252  7.404  8.048
Cl -3.423  9.471  8.778

2
Na -3.296  6.576  7.481
Cl -2.154  8.715  7.562

2
Na -2.653  7.194  7.236
Cl -3.192  7.197  9.515

2
Na -3.353  6.461  7.942
Cl -2.785  8.350 10.962

2
Na -4.285  5.846  7.661
Cl -2.968  6.782 11.164

2
Na -5.743  6.226  9.078
Cl -3.037  6.757 10.413

2
Na -7.174  6.288  9.649
Cl -4.066  6.534 11.453

2
Na -6.205  7.258  9.733
Cl -4.422  7.305 11.674

2
Na -5.570  7.748  9.354
Cl -2.749  7.866 11.337

2
Na -4.496  8.337  9.274
Cl -3.508  7.468 12.932

2
Na -3.879  7.854  8.296
Cl -2.810  7.626 10.181

2
Na -5.187  7.435  9.438
Cl -4.745  7.275 11.415

2
Na -4.677  6.889  9.301
Cl -5.363  6.384 12.415

2
Na -5.668  6.103  9.560
Cl -5.347  8.186 12.029

2
Na -5.195  6.006 -9.342
Cl -4.172  8.937 -8.161

2
Na -4.841  7.206 -9.753
Cl -2.961  8.165 -7.438

2
Na -5.411  7.856  9.725
Cl -3.378  8.367 11.804

2
Na -5.393  8.220 -9.811
Cl -3.836  8.191 -8.442

2
Na -5.453  8.582 -9.953
Cl -3.973  7.368 -9.131

2
Na -3.829  9.098 -9.673
Cl -4.299  6.543 -9.413

2
Na -3.686  9.385 -9.556
Cl -4.643  6.870 -9.106

2
Na -3.582  9.902 -9.231
Cl -4.234  7.678 -10.042

2
Na -2.378  8.823  9.581
Cl -4.782  7.149  9.553

2
Na -2.436  8.482  8.528
Cl -4.864  6.984  9.252

2
Na -2.158  9.087  6.977
Cl -3.765  8.650  9.535

2
Na -1.826  8.423  6.047
Cl -3.052  9.105  9.979

2
Na -1.611  7.805  6.677
Cl -3.791  9.204  7.382

2
Na -1.267  8.127  6.997
Cl -3.264  9.405  7.563

2
Na -1.393  9.349  6.093
Cl -4.274  9.634  8.305

2
Na -1.526 -9.422  6.406
Cl -3.343 -10.111  7.029

2
Na  0.158  8.861  6.690
Cl -3.258 10.612  6.251

2
Na -0.082  9.420  6.997
Cl -1.582 11.154  5.910

2
Na -0.406 -9.959  5.298
Cl -1.647 -7.617  6.951

2
Na -1.041 -8.986  6.097
Cl -3.061 -7.569  6.752

2
Na -1.218 -8.856  5.310
Cl -1.785 -6.975  6.718

2
Na -1.267 -7.948  5.202
Cl -2.028 -6.557  5.828

2
Na -0.472 -8.730  6.295
Cl -1.633 -5.363  5.393

2
Na -0.591 -7.706  5.945
Cl -2.005 -5.896  4.573

2
Na -0.375 -5.397  6.856
Cl -2.068 -6.761  4.328

2
Na  1.035 -6.662  6.410
Cl -1.683 -8.511  5.382

2
Na  0.742 -7.574  5.684
Cl -2.350 -7.718  5.652

2
Na -0.792 -7.801  7.531
Cl -1.547 -8.344  7.055

2
Na -1.437 -7.272  6.841
Cl -0.436 -9.631  7.804

2
Na -0.691 -6.946  6.165
Cl -0.291 -9.199  6.739

2
Na -0.305 -7.641  6.620
Cl  0.146 -9.328  7.717

2
Na  0.839 -5.300  6.614
Cl -0.567 -8.189  6.061

2
Na  0.545 -5.483  5.431
Cl -1.109 -8.411  5.483

2
Na  1.382 -6.421  6.602
Cl -0.244 -9.313  4.475

2
Na  0.605 -7.267  6.911
Cl  0.171 -8.258  4.448

2
Na  1.739 -7.307  5.904
Cl  0.713 -8.110  4.076

2
Na  2.112 -7.368  4.781
Cl  2.274 -8.346  5.235

2
Na  2.405 -6.722  3.581
Cl  3.359 -6.868  5.173

2
Na  2.241 -7.080  4.423
Cl  2.739 -6.234  6.402

2
Na  2.680 -8.031  6.029
Cl  2.689 -6.934  6.696

2
Na  3.319 -8.934  4.817
Cl  2.622 -7.342  5.111

2
Na  4.091 -9.740  6.451
Cl  3.661 -8.304  5.721

2
Na  3.590  9.037  5.349
Cl  4.583  9.703  5.295

2
Na  4.171  7.949  4.035
Cl  3.194  9.868  5.057

2
Na  5.081  7.784  4.499
Cl  3.636  9.657  6.463

2
Na  6.302  9.296  7.058
Cl  3.745  9.471  7.334

2
Na  7.154  9.273  6.728
Cl  4.138  9.733  5.821

2
Na  6.904  8.673  5.025
Cl  4.398 10.098  5.273

2
Na  7.201  7.823  3.730
Cl  5.749  9.661  5.403

2
Na  7.340  8.464  3.889
Cl  6.433 10.719  4.253

2
Na  7.227  8.799  4.674
Cl  6.263 10.911  3.893

2
Na  8.342  9.707  5.851
Cl  6.075 10.097  4.128

2
Na  7.794  9.659  5.027
Cl  6.304 10.131  5.024

2
Na  8.338  9.441  4.822
Cl  5.949 11.256  6.079

2
Na  8.701 -9.993  5.760
Cl  7.474 -9.568  5.552

2
Na  9.272  8.663  5.009
Cl  8.359 11.744  6.070

2
Na -9.828  8.902  5.035
Cl -11.760 10.825  5.815

2
Na  9.343 -8.710  4.813
Cl  7.956 -7.782  4.160

2
Na  8.565 -8.488  4.260
Cl  7.511 -7.574  3.335

2
Na  9.693 -9.710  3.389
Cl  6.220 -7.670  4.538

2
Na  9.480 -8.908  4.644
Cl  7.682 -5.775  4.135

2
Na  9.878 -8.630  5.280
Cl  7.946 -5.922  5.574

2
Na -9.353 -9.197  5.726
Cl -10.965 -7.763  4.195

2
Na  9.873 -9.940  5.701
Cl  8.404 -8.466  4.856

2
Na  8.921  9.006  6.433
Cl  8.297 11.466  5.176

2
Na  8.699  9.262  7.487
Cl  6.949 10.949  4.926

2
Na  7.915  9.715  8.061
Cl  6.898 11.218  5.377

2
Na  8.542  9.078  8.422
Cl  7.882 10.890  5.383

2
Na  8.797  8.337  8.125
Cl  7.665  9.562  4.434

2
Na  9.616  8.825  7.378
Cl  7.455  9.574  4.566

2
Na  8.930  9.237  5.317
Cl  6.810  8.998  4.516

2
Na  6.723  7.853  4.285
Cl  7.647 10.057  5.603

2
Na  6.504  7.766  6.033
Cl  9.467  9.569  6.832

2
Na  5.933  6.418  6.340
Cl  9.013  9.114  7.449

2
Na  6.357  6.567  7.482
Cl  8.163  8.925  7.078

2
Na  5.821  7.086  7.078
Cl  8.052  7.855  6.038

2
Na  7.796  6.335  7.196
Cl  9.981  6.299  6.190

2
Na  8.030  6.060  8.186
Cl  9.011  6.243  8.050

2
Na  7.886  5.997  8.948
Cl  7.763  6.695  8.130

2
Na  9.952  4.072  9.627
Cl  9.145  5.723  9.377

2
Na -9.055  3.950 -9.924
Cl -12.069  5.178 -10.966

2
Na  9.172  3.587 -8.610
Cl  7.961  4.772 -11.538

2
Na  8.891  3.334 -8.806
Cl  8.672  3.701 -11.087

2
Na  7.260  3.280 -7.904
Cl  8.103  3.079 -9.671

2
Na  7.570  3.402 -8.227
Cl  8.015  3.543 -10.155

2
Na  6.870  3.308 -8.544
Cl  8.534  5.627 -9.712

2
Na  6.729  3.252 -8.200
Cl  7.051  4.869 -9.497

2
Na  7.702  3.070 -8.257
Cl  6.291  4.869 -9.068

2
Na  6.895  4.474 -6.583
Cl  5.282  4.094 -8.949

2
Na  6.290  2.386 -6.376
Cl  7.467  4.096 -8.398

2
Na  6.584  3.398 -5.305
Cl  6.891  3.169 -8.796

2
Na  7.042  2.606 -5.979
Cl  7.717  3.424 -8.306

2
Na  7.489  2.469 -5.448
Cl  7.185  4.405 -6.914

2
Na  6.802  2.454 -6.683
Cl  7.471  4.185 -6.840

2
Na  6.789  3.653 -6.290
Cl  8.799  4.082 -7.285

2
Na  7.295  3.385 -6.963
Cl  8.916  4.957 -6.667

2
Na  7.270  3.307 -6.298
Cl 10.235  4.148 -6.230

2
Na  8.500  3.547 -6.621
Cl  9.430  4.432 -6.407

2
Na  9.585  3.179 -5.068
Cl  8.432  5.328 -6.349

2
Na -9.999  2.363 -4.222
Cl -10.742  4.965 -5.178

2
Na -9.192  1.450 -3.690
Cl -10.183  5.230 -3.027

2
Na  9.742  1.900 -3.716
Cl  9.359  5.009 -3.066

2
Na -9.398  2.261 -4.098
Cl -10.566  4.488 -3.034

2
Na -9.730  2.119 -4.872
Cl -8.795  3.729 -2.490

2
Na -9.981  0.907 -3.847
Cl -7.955  3.707 -3.471

2
Na -8.743  0.465 -5.443
Cl -6.636  2.623 -4.679

2
Na -8.193  0.241 -6.866
Cl -7.700  2.148 -4.569

2
Na -7.897  1.291 -6.867
Cl -8.084  2.443 -5.423

2
Na -7.225  1.651 -7.073
Cl -8.893  3.063 -5.613

2
Na -7.025  2.018 -5.654
Cl -8.383  2.443 -6.461

2
Na -6.795  0.975 -5.990
Cl -10.391  1.541 -4.843

2
Na -8.032  0.725 -5.849
Cl -9.928  2.234 -5.503

2
Na -8.996  0.144 -6.352
Cl -10.579  1.894 -6.080

2
Na -8.094  0.592 -4.561
Cl -9.860  2.915 -5.923

2
Na -9.498 -0.262 -5.346
Cl -9.870  3.957 -5.907

2
Na -9.550  0.304 -6.377
Cl -10.026  2.891 -3.867

2
Na  9.698  0.684 -7.141
Cl  9.462  2.745 -4.047

2
Na -9.923  2.630 -4.978
Cl -11.985  2.933 -4.141

2
Na  8.884  3.413 -5.620
Cl  7.614  4.149 -3.779

2
Na  9.906  3.330 -5.194
Cl  8.342  4.496 -5.096

2
Na -9.718  3.600 -5.085
Cl -12.863  5.146 -4.869

2
Na  9.746  3.926 -4.328
Cl  6.302  4.372 -5.134

2
Na  8.876  2.756 -4.540
Cl  6.661  4.336 -5.135

2
Na  8.914  1.998 -5.751
Cl  6.537  4.759 -4.326

2
Na  6.997  0.368 -6.284
Cl  6.968  2.937 -3.149

2
Na  7.028  1.550 -5.052
Cl  7.294  2.955 -4.536

2
Na  6.993  0.779 -4.236
Cl  7.188  2.713 -4.242

2
Na  6.673  0.613 -4.408
Cl  4.938  1.742 -3.553

2
Na  6.505 -0.718 -3.988
Cl  6.430  2.454 -3.245

2
Na  6.961 -2.407 -2.869
Cl  5.632  1.393 -3.201

2
Na  6.703 -1.990 -4.600
Cl  5.722  1.320 -2.881

2
Na  5.817 -1.470 -5.047
Cl  5.512  0.762 -3.538

2
Na  5.884 -2.638 -3.930
Cl  5.210 -0.548 -4.551

2
Na  5.639 -2.519 -4.372
Cl  4.725 -1.222 -4.251

2
Na  5.587 -3.063 -4.781
Cl  2.951 -2.050 -5.263

2
Na  3.268 -2.846 -4.919
Cl  2.370 -1.308 -3.190

2
Na  3.756 -2.507 -3.520
Cl  1.807 -2.484 -1.374

2
Na  3.972 -2.045 -2.522
Cl  2.939 -4.337 -0.511

2
Na  4.362 -1.383 -2.325
Cl  2.402 -3.780  0.779

2
Na  5.080 -2.191 -0.955
Cl  2.241 -4.044  1.039

2
Na  5.009 -2.390 -0.795
Cl  2.248 -3.910  1.289

2
Na  5.516 -1.623 -0.428
Cl  3.435 -3.304  0.982

2
Na  3.525 -2.701  0.900
Cl  3.641 -3.496 -2.924

2
Na  3.569 -1.988 -0.598
Cl  3.455 -4.077 -3.228

2
Na  3.590 -2.160 -1.881
Cl  4.105 -4.274 -2.831

2
Na  3.397 -1.152 -2.260
Cl  4.262 -4.205 -2.593

2
Na  2.865 -2.560 -1.797
Cl  3.456 -3.525 -2.764

2
Na  2.978 -2.479 -2.142
Cl  1.241 -3.245 -3.148

2
Na  2.400 -1.979 -1.915
Cl  1.623 -3.450 -2.323

2
Na  3.390 -2.762 -4.688
Cl  1.520 -3.334 -3.622

2
Na  4.921 -2.490 -5.176
Cl  2.500 -3.440 -4.348

2
Na  5.588 -2.227 -5.954
Cl  2.691 -3.328 -4.317

2
Na  5.185 -3.394 -4.176
Cl  3.028 -2.242 -4.952

2
Na  5.512 -4.104 -4.402
Cl  3.600 -2.324 -4.645

2
Na  6.070 -3.651 -4.493
Cl  2.155 -1.295 -4.946

2
Na  6.439 -2.814 -4.204
Cl  2.468 -1.202 -4.870

2
Na  5.990 -2.393 -4.021
Cl  3.699 -2.475 -4.792

2
Na  6.143 -2.608 -3.448
Cl  2.739 -2.184 -3.246

2
Na  4.702 -2.394 -3.699
Cl  3.059 -0.309 -3.321

2
Na  5.016 -2.230 -2.529
Cl  4.792 -1.237 -5.040

2
Na  5.713 -2.183 -3.194
Cl  5.748 -0.573 -4.428

2
Na  6.318 -1.927 -1.555
Cl  4.010 -1.827 -3.723

2
Na  4.794 -1.985 -2.210
Cl  4.969 -1.496 -4.849

2
Na  3.863 -2.300 -3.060
Cl  5.251 -2.177 -5.001

2
Na  4.159 -2.914 -3.063
Cl  5.969 -2.257 -5.335

2
Na  5.169 -3.976 -3.273
Cl  5.253 -0.376 -5.254

2
Na  4.990 -3.086 -4.790
Cl  6.068 -1.913 -5.134

2
Na  6.760 -1.641 -4.262
Cl  6.079 -0.865 -5.557

2
Na  6.636 -3.210 -5.176
Cl  7.292 -1.146 -5.325

2
Na  6.248 -3.900 -4.775
Cl  7.165 -1.701 -5.394

2
Na  6.171 -3.879 -3.696
Cl  6.513 -1.713 -4.078

2
Na  5.509 -2.258 -4.476
Cl  7.236 -2.795 -4.249

2
Na  5.988 -3.712 -3.987
Cl  7.171 -2.147 -3.399

2
Na  5.193 -2.900 -4.563
Cl  7.500 -2.190 -3.354

2
Na  6.093 -4.167 -3.949
Cl  6.804 -3.509 -2.446

2
Na  7.532 -4.920 -4.666
Cl  5.470 -4.948 -2.917

2
Na  8.010 -4.465 -4.367
Cl  4.964 -3.588 -2.969

2
Na  7.966 -3.710 -2.963
Cl  6.016 -3.472 -3.337

2
Na  8.169 -2.915 -1.929
Cl  6.851 -3.279 -2.585

2
Na  9.643 -2.649 -1.208
Cl  7.200 -4.196 -2.510

2
Na  9.336 -3.828 -0.877
Cl  6.957 -5.080 -0.372

2
Na  9.683 -4.766 -2.284
Cl  6.217 -3.763 -1.538

2
Na -9.985 -5.218 -2.308
Cl -14.443 -3.355 -2.792

2
Na -8.612 -5.104 -1.763
Cl -12.460 -3.008 -2.537

2
Na  9.725 -4.910 -1.919
Cl  7.715 -4.132 -1.637

2
Na  8.845 -5.309 -1.593
Cl  9.240 -5.211 -2.640

2
Na  9.333 -5.673 -0.640
Cl  9.970 -4.935 -2.719

2
Na -8.438 -5.399  0.409
Cl -8.714 -5.354 -1.746

2
Na -7.750 -5.165 -1.306
Cl -7.714 -6.519 -2.301

2
Na -6.807 -5.228  0.282
Cl -7.929 -7.312 -2.287

2
Na -6.209 -5.593  0.405
Cl -7.678 -7.436 -1.613

2
Na -8.064 -5.466 -0.170
Cl -7.779 -6.846 -2.858

2
Na -7.716 -4.662 -0.233
Cl -7.990 -4.578 -2.607

2
Na -6.396 -4.696  0.065
Cl -6.056 -5.392 -1.768

2
Na -7.312 -5.456 -0.269
Cl -6.532 -5.062 -1.961

2
Na -6.905 -4.612 -0.239
Cl -7.776 -3.036 -2.338

2
Na -6.528 -5.802 -0.173
Cl -5.314 -3.785 -2.451

2
Na -5.991 -4.696 -0.384
Cl -5.495 -3.720 -3.515

2
Na -6.148 -3.455 -0.408
Cl -5.315 -3.797 -3.566

2
Na -5.566 -3.058 -0.318
Cl -4.830 -2.825 -3.419

2
Na -5.362 -3.263 -0.825
Cl -5.348 -2.864 -3.673

2
Na -5.481 -2.287 -0.736
Cl -4.325 -3.437 -4.246

2
Na -5.221 -2.833  0.140
Cl -3.740 -4.536 -3.558

2
Na -4.862 -2.273  0.636
Cl -4.217 -2.740 -1.502

2
Na -3.612 -0.608  1.041
Cl -3.450 -1.890 -0.680

2
Na -2.838 -0.600  0.286
Cl -3.408 -2.048 -1.364

2
Na -2.830 -1.121 -0.414
Cl -2.163 -2.110 -1.470

2
Na -1.947 -0.423  0.236
Cl -2.281 -2.471 -2.010

2
Na -3.767 -0.302 -0.191
Cl -1.439 -1.086 -0.828

2
Na -4.179 -0.389  1.036
Cl -1.181 -1.065  0.119

2
Na -2.243  2.004  0.286
Cl  0.176 -1.433 -1.221

2
Na -0.470  1.817 -0.019
Cl -0.486 -2.070 -1.191

2
Na -1.295  0.584  0.186
Cl -0.590 -1.648 -0.544

2
Na -0.643  0.982 -0.095
Cl -1.172 -2.996 -0.476

2
Na -0.200  0.782 -0.629
Cl  0.184 -2.897 -0.036

2
Na -0.715 -0.183  0.079
Cl -1.190 -1.415 -0.016

2
Na -0.145 -0.017 -2.752
Cl -1.162 -2.970 -1.779

2
Na -0.820 -0.364 -2.817
Cl -2.831 -3.279 -0.414

2
Na -0.621  0.068 -3.806
Cl -1.813 -2.336 -2.135

2
Na -1.742 -0.333 -4.049
Cl -3.104 -1.887 -3.223

2
Na -1.185 -0.223 -4.819
Cl -2.105 -2.192 -1.815

2
Na -0.355 -0.004 -3.420
Cl -1.480 -1.140 -1.896

2
Na  0.237 -0.103 -3.918
Cl -1.464 -1.448  0.080

2
Na  0.769 -1.533 -3.323
Cl -1.772 -0.688 -0.769

2
Na  0.785 -0.956 -2.777
Cl -1.364 -0.832 -1.070

2
Na  0.347 -1.064 -3.340
Cl -0.899 -2.242 -0.240

2
Na -0.408 -2.704 -3.432
Cl -2.081 -3.578  0.078

2
Na -1.398 -3.700 -2.703
Cl -1.415 -2.871 -0.287

2
Na -0.846 -3.724 -2.568
Cl -0.429 -4.209  0.865

2
Na -0.313 -3.362 -2.429
Cl -1.080 -3.469  0.592

2
Na -0.471 -2.261 -2.223
Cl -1.543 -2.913  0.388

2
Na -0.863 -1.347 -1.842
Cl -2.291 -3.934  0.496

2
Na -1.677 -1.658 -2.169
Cl -1.538 -3.133  0.800

2
Na -1.203 -2.096 -2.339
Cl -1.675 -3.341  0.127

2
Na -1.330 -3.876 -2.813
Cl -2.879 -3.513 -1.950

2
Na -2.116 -4.169 -2.547
Cl -2.741 -3.389 -0.574

2
Na -1.290 -4.470 -2.433
Cl -2.922 -3.517 -1.838

2
Na -0.866 -5.778 -2.380
Cl -1.827 -3.471 -2.092

2
Na -1.472 -5.498 -1.893
Cl -2.211 -2.474 -1.861

2
Na -0.800 -6.124 -1.581
Cl -2.668 -3.152 -3.061

2
Na -0.946 -5.927 -1.450
Cl -2.523 -5.087 -2.901

2
Na -1.358 -5.759  0.044
Cl -2.486 -4.103 -2.185

2
Na -2.265 -6.269  0.018
Cl -1.501 -4.189 -1.625

2
Na -1.350 -6.531 -0.287
Cl -1.038 -3.534 -1.717

2
Na -1.860 -5.807  0.191
Cl -2.860 -3.994 -0.164

2
Na -1.050 -5.291 -0.403
Cl -4.073 -4.389 -0.807

2
Na -1.428 -5.741  0.084
Cl -2.066 -4.747 -1.007

2
Na -1.042 -5.587  0.283
Cl -2.653 -6.442  0.441

2
Na -0.740 -7.646  1.453
Cl -1.821 -6.252 -0.308

2
Na -0.658 -8.535  0.281
Cl -1.113 -6.046  0.151

2
Na -1.409 -7.535 -1.358
Cl -1.407 -5.966  0.052

2
Na -1.307 -7.714 -3.118
Cl -1.917 -6.406 -0.728

2
Na -1.310 -7.101 -1.692
Cl -2.551 -6.957 -0.166

2
Na -3.714 -5.590 -1.568
Cl -3.026 -6.817  0.070

2
Na -3.226 -7.520 -0.388
Cl -3.741 -7.460 -0.636

2
Na -4.062 -8.061 -0.911
Cl -4.914 -7.637  0.706

2
Na -4.287 -8.052 -0.574
Cl -4.735 -8.051 -0.924

2
Na -5.473 -8.403 -0.467
Cl -3.722 -9.500 -1.064

2
Na -5.126 -9.293 -1.252
Cl -2.727 -10.409 -0.125

2
Na -5.164 -7.586 -0.788
Cl -3.241 -9.966 -1.199

2
Na -5.649 -7.780 -0.030
Cl -3.055 -8.073 -1.199

2
Na -5.334 -8.462  0.858
Cl -3.877 -8.934 -0.948

2
Na -4.194 -9.397  0.363
Cl -5.687 -7.811 -0.778

2
Na -3.103 -8.289 -1.642
Cl -6.348 -7.778 -1.580

2
Na -2.003 -7.081 -1.900
Cl -5.621 -7.718 -0.860

2
Na -2.725 -6.892 -1.616
Cl -4.521 -7.383 -0.611

2
Na -4.148 -5.079 -0.447
Cl -5.050 -6.295  0.670

2
Na -2.689 -5.386 -0.886
Cl -4.385 -6.362  0.939

2
Na -5.124 -5.777 -0.689
Cl -5.065 -5.970  1.131

2
Na -6.760 -6.132  0.874
Cl -5.990 -4.769  1.684

2
Na -6.457 -6.166  0.222
Cl -5.739 -5.706  1.064

2
Na -5.961 -5.117 -0.085
Cl -4.490 -4.277  1.934

2
Na -6.255 -4.811 -0.022
Cl -4.942 -3.911  1.272

2
Na -6.190 -4.306  0.982
Cl -4.545 -3.554  0.908

2
Na -4.484 -4.571  1.482
Cl -3.852 -5.417 -0.417

2
Na -1.705 -4.888  2.749
Cl -3.408 -6.761  0.944

2
Na -1.215 -3.531  3.028
Cl -2.496 -5.805  0.680

2
Na -1.540 -3.109  2.147
Cl -2.381 -6.174  0.889

2
Na -1.201 -3.594  1.677
Cl -1.273 -5.251  1.179

2
Na  0.281 -4.073  1.773
Cl -1.661 -4.594  0.907

2
Na  0.692 -4.860  2.292
Cl -1.781 -2.585  0.273

2
Na -0.240 -2.736  1.868
Cl -2.268 -2.299  0.634

2
Na -2.145 -4.079  3.137
Cl -3.758 -2.808  1.872

2
Na -2.667 -4.150  2.873
Cl -3.611 -1.805  1.143

2
Na -3.344 -4.396  5.196
Cl -2.901 -3.163  1.873

2
Na -4.167 -6.222  3.692
Cl -2.385 -3.426  1.472

2
Na -3.505 -5.719  2.660
Cl -1.687 -3.926  1.680

2
Na -3.548 -5.538  4.819
Cl -2.475 -3.758  2.668

2
Na -3.109 -5.804  5.628
Cl -1.048 -3.652  2.671

2
Na -2.727 -4.666  6.141
Cl -2.203 -5.361  1.929

2
Na -2.355 -3.826  6.911
Cl -3.279 -4.341  2.999

2
Na -3.033 -3.947  6.348
Cl -2.687 -4.380  4.662

2
Na -1.387 -4.589  5.452
Cl -2.766 -2.585  4.908

2
Na -0.236 -3.633  5.542
Cl -1.658 -4.179  4.856

2
Na -0.074 -2.822  5.350
Cl -0.495 -4.933  4.349

2
Na  1.371 -2.462  6.258
Cl  0.023 -4.080  3.426

2
Na  1.627 -3.683  4.857
Cl  1.397 -4.523  4.782

2
Na  1.282 -5.378  5.530
Cl  2.448 -6.386  5.536

2
Na  0.160 -6.083  4.483
Cl  2.189 -5.542  4.580

2
Na -0.090 -5.211  3.613
Cl  2.380 -5.794  2.992

2
Na -0.172 -5.118  3.334
Cl  2.586 -4.791  3.167

2
Na  1.827 -5.364  4.688
Cl  2.012 -5.822  1.012

2
Na  1.128 -5.164  3.560
Cl  1.922 -6.398  0.224

2
Na  2.406 -4.963  4.332
Cl  1.808 -6.496  1.790

2
Na  2.657 -4.853  3.658
Cl  3.104 -6.340  1.950

2
Na  2.471 -4.655  3.870
Cl  3.734 -5.600  1.418

2
Na  2.637 -4.572  2.791
Cl  3.399 -4.452  2.060

2
Na  2.095 -4.098  3.358
Cl  4.267 -5.686  1.929

2
Na  2.827 -4.383  2.866
Cl  1.587 -4.496  2.530

2
Na  3.651 -3.819  3.071
Cl  2.587 -1.859  3.685

2
Na  3.876 -5.022  5.355
Cl  3.737 -3.014  4.720

2
Na  4.936 -4.941  4.729
Cl  3.020 -1.083  5.241

2
Na  5.783 -5.177  4.953
Cl  2.615 -2.138  5.516

2
Na  4.224 -4.352  4.885
Cl  3.006 -2.466  5.649

2
Na  3.405 -4.650  3.951
Cl  2.882 -2.594  4.889

2
Na  3.845 -4.363  3.330
Cl  3.855 -1.423  3.922

2
Na  3.830 -5.756  2.776
Cl  2.128 -1.145  4.141

2
Na  5.173 -4.566  3.414
Cl  1.546 -2.330  4.416

2
Na  5.380 -3.117  3.648
Cl  0.563 -3.006  4.405

2
Na  5.934 -2.101  3.886
Cl  2.380 -3.910  5.062

2
Na  5.329 -2.614  3.953
Cl  1.652 -4.886  4.936

2
Na  4.470 -1.583  4.086
Cl  2.979 -3.986  5.873

2
Na  5.336 -0.845  5.146
Cl  2.125 -2.224  5.614

2
Na  4.027 -0.440  5.126
Cl  2.731 -1.635  4.305

2
Na  4.496 -1.692  5.406
Cl  1.997 -2.443  5.205

2
Na  5.436 -2.248  3.946
Cl  2.004 -2.172  5.197

2
Na  4.387 -3.609  3.785
Cl  0.965 -3.514  5.065

2
Na  5.626 -4.084  4.518
Cl  1.019 -3.894  4.645

2
Na  5.189 -5.786  4.212
Cl  2.091 -4.536  4.111

2
Na  4.557 -6.146  3.768
Cl  2.437 -4.813  4.233

2
Na  4.896 -4.726  4.002
Cl  1.849 -4.473  3.629

2
Na  5.295 -3.716  3.786
Cl  3.321 -4.180  5.150

2
Na  4.146 -3.974  3.329
Cl  3.669 -4.028  5.069

2
Na  3.674 -4.401  4.149
Cl  2.654 -5.351  5.777

2
Na  3.243 -3.622  4.113
Cl  2.856 -5.871  6.115

2
Na  0.521 -5.016  4.291
Cl  1.885 -5.149  5.946

2
Na  1.162 -3.625  4.650
Cl  2.126 -5.240  7.053

2
Na  0.577 -3.204  5.637
Cl  2.185 -5.363  6.647

2
Na  0.444 -4.591  5.201
Cl  1.279 -6.054  6.955

2
Na  1.686 -4.849  4.521
Cl  3.509 -7.297  5.616

2
Na  0.843 -4.941  3.362
Cl  3.035 -7.424  5.053

2
Na  1.408 -6.470  3.676
Cl  2.461 -8.693  5.034

2
Na  0.118 -7.159  3.374
Cl  2.124 -9.232  3.805

2
Na  0.752 -7.389  2.959
Cl  0.839 -10.176  3.417

2
Na  0.667 -7.841  4.303
Cl  0.700 -10.364  1.768

2
Na  1.630 -7.927  4.173
Cl -0.315 -9.728  3.158

2
Na  2.000 -7.703  3.776
Cl  0.349 -8.895  1.956

2
Na  2.133 -7.961  3.861
Cl  0.230 -8.932  3.034

2
Na  3.076 -7.874  3.767
Cl  0.809 -9.674  4.006

2
Na  2.452 -7.371  3.953
Cl  3.550 -9.366  4.502

2
Na  3.175 -7.053  4.656
Cl  3.813 -8.501  4.315

2
Na  3.500 -6.301  2.947
Cl  3.732 -6.778  4.515

2
Na  3.178 -6.146  2.943
Cl  3.419 -6.876  2.478

2
Na  2.879 -6.870  2.606
Cl  2.266 -6.201  1.784

2
Na  3.694 -6.029  3.283
Cl  2.068 -6.453  0.948

2
Na  3.955 -5.247  3.526
Cl  3.393 -5.791  1.646

2
Na  4.344 -6.733  2.879
Cl  2.650 -7.442  2.567

2
Na  3.403 -6.791  2.806
Cl  1.515 -8.097  3.097

2
Na  3.879 -7.999  2.331
Cl  1.752 -7.614  3.356

2
Na  4.397 -7.946  2.411
Cl  1.179 -7.490  2.762

2
Na  4.762 -8.759  2.430
Cl  1.474 -8.252  1.648

2
Na  4.819 -9.622  1.844
Cl  3.292 -10.034  2.638

2
Na  6.205 -9.131  1.649
Cl  4.395 -10.675  2.635

2
Na  4.740 -9.317  0.685
Cl  4.141 -12.138  1.839

2
Na  4.747 -9.616 -0.515
Cl  4.589 -13.242  1.054

2
Na  4.095 -9.975 -0.448
Cl  6.030 -13.078  2.366

2
Na  4.722  8.176 -0.618
Cl  6.749  6.955  2.467

2
Na  4.703  7.727 -1.034
Cl  5.273  6.015  2.649

2
Na  5.088  6.870 -1.660
Cl  5.672  8.236  2.300

2
Na  5.515  6.678 -1.381
Cl  5.872  8.457  2.211

2
Na  4.761  6.382 -0.820
Cl  6.013  9.404  0.304

2
Na  5.599  5.262 -1.298
Cl  5.892  9.366  1.139

2
Na  5.536  5.606 -0.647
Cl  6.611  8.336 -0.192

2
Na  6.220  5.699 -2.215
Cl  7.924  8.037 -0.598

2
Na  6.892  5.977 -2.459
Cl  9.167  6.551 -0.509

2
Na  7.319  5.392 -3.629
Cl  9.301  5.999 -0.427

2
Na  8.705  4.950 -4.677
Cl 10.682  6.425 -0.973

2
Na  8.711  5.631 -4.556
Cl 10.833  5.119 -0.250

2
Na  9.612  6.083 -3.607
Cl 10.683  4.423 -0.111

2
Na  9.005  6.379 -3.735
Cl  9.610  2.338 -0.359

2
Na  9.515  5.989 -2.807
Cl  8.861  1.540 -1.241

2
Na  9.731  6.105 -3.347
Cl  8.248  2.957 -0.760

2
Na  8.580  7.014 -3.386
Cl  7.229  2.519 -0.765

2
Na  7.991  6.646 -3.320
Cl  6.901  3.366 -0.526

2
Na  8.207  5.667 -1.870
Cl  5.739  3.640 -0.235

2
Na  7.368  4.511 -3.063
Cl  6.121  3.236 -0.902

2
Na  6.248  4.514 -4.222
Cl  7.339  4.960 -1.873

2
Na  6.629  4.286 -3.674
Cl  7.807  6.182 -1.438

2
Na  5.978  5.211 -3.622
Cl  8.094  6.485 -1.358

2
Na  6.605  5.109 -2.482
Cl  7.525  7.468 -2.278

2
Na  8.404  5.545 -2.199
Cl  7.520  8.726 -2.672

2
Na  7.773  4.500 -2.584
Cl  7.296  7.537 -2.255

2
Na  8.735  4.334 -2.308
Cl  6.723  8.406 -1.671

2
Na  8.970  4.165 -1.132
Cl  7.551  8.144 -1.232

2
Na -9.367  5.084 -0.825
Cl -12.031  7.424 -1.024

2
Na -9.999  4.920 -0.263
Cl -10.866  7.452  0.012

2
Na  9.786  6.185 -0.240
Cl 11.025  8.271 -0.646

2
Na  9.239  7.508 -0.609
Cl 11.100  8.307 -1.022

2
Na  9.578  7.975  0.201
Cl 11.574  7.492  1.262

2
Na -8.694  8.751  1.288
Cl -9.886  7.549  2.498

2
Na -7.419  6.273  0.831
Cl -9.423  6.638  2.183

2
Na -7.157  4.302  1.127
Cl -9.010  6.705  2.666

2
Na -7.810  3.204 -0.005
Cl -8.199  5.534  2.227

2
Na -8.926  3.546  0.329
Cl -8.137  5.722  1.908

2
Na -8.814  3.777  1.593
Cl -7.763  4.864  1.393

2
Na -9.962  4.629 -0.076
Cl -10.731  4.013  1.843

2
Na  8.363  4.416  0.094
Cl  8.635  5.621  1.844

2
Na  9.010  5.799 -0.652
Cl  9.690  3.963  1.498

2
Na  9.019  5.577 -0.623
Cl  9.411  3.650  1.607

2
Na  9.575  4.749 -0.773
Cl  8.762  2.888  1.749

2
Na  8.306  5.048  0.446
Cl  9.008  2.492  0.530

2
Na -9.862  5.735  0.909
Cl -10.208  3.338 -0.103

2
Na -8.620  4.581  0.672
Cl -10.080  3.531 -0.237

2
Na -9.274  5.991 -0.290
Cl -10.383  4.671 -0.377

2
Na -9.169  6.620 -1.066
Cl -10.858  5.573  0.851

2
Na  9.997  7.353  0.454
Cl 10.489  6.452  1.389

2
Na  9.662  9.712 -0.804
Cl  9.700  6.988 -0.369

2
Na -8.020  8.757  0.019
Cl -10.184  7.538  0.051

2
Na -8.912  9.296  0.777
Cl -11.636  8.533 -0.053

2
Na -9.297  9.791  1.049
Cl -13.025  9.564 -0.412

2
Na  9.747 -9.539  0.387
Cl  7.282 -9.358 -1.603

2
Na  9.362 -9.026 -0.199
Cl  9.858 -10.107 -1.388

2
Na  9.947  9.532  0.999
Cl 10.655  9.006 -1.660

2
Na -9.851  8.781  0.861
Cl -8.244  9.874 -0.949

2
Na  9.652  8.365  1.008
Cl 11.991 11.094  0.583

2
Na -8.017  9.572  1.067
Cl -8.848 10.973 -0.553

2
Na  9.767 -9.257  0.675
Cl 11.630 -9.663  0.338

2
Na -8.928  9.902 -0.558
Cl -6.511 10.633  1.063

2
Na -7.794  9.869 -1.079
Cl -6.281 10.655  0.622

2
Na -8.132  7.917 -1.789
Cl -7.708  9.161  1.100

2
Na -7.190  8.392 -1.994
Cl -6.520  8.521  0.776

2
Na -6.926  8.847 -1.766
Cl -5.073  8.545 -0.215

2
Na -7.116  7.547 -2.682
Cl -5.871  9.553 -1.084

2
Na -7.426  7.787 -2.780
Cl -5.194  8.500 -1.166

2
Na -7.802  6.905 -1.445
Cl -5.237  8.564 -2.984

2
Na -7.476  7.122 -1.075
Cl -5.113  9.610 -2.226

2
Na -8.469  7.863 -1.293
Cl -6.004  7.321 -2.494

2
Na -8.552  8.391 -1.193
Cl -6.901  7.575 -3.215

2
Na -7.111  9.183 -1.397
Cl -8.421  7.014 -3.470

2
Na -6.906  8.973 -1.754
Cl -9.104  7.080 -3.354

2
Na -6.682  8.120 -2.757
Cl -9.512  7.172 -3.479

2
Na -7.334  8.067 -2.775
Cl -10.359  6.668 -3.381

2
Na -7.898  8.944 -1.904
Cl -9.520  8.053 -4.527

2
Na -9.074  7.815 -3.151
Cl -8.348  6.122 -4.343

2
Na -9.613  7.682 -3.349
Cl -9.085  4.567 -5.044

2
Na -9.141  8.379 -4.164
Cl -9.663  5.298 -6.401

2
Na -9.205  8.564 -5.267
Cl -9.830  6.648 -7.426

2
Na  9.662  7.446 -6.363
Cl 11.527  7.587 -6.508

2
Na -9.565  6.226 -6.658
Cl -7.633  8.049 -6.091

2
Na -9.851  6.508 -6.468
Cl -7.232  8.276 -5.574

2
Na -9.714  6.873 -5.571
Cl -8.534  6.542 -5.799

2
Na -9.504  8.165 -5.746
Cl -8.985  8.532 -5.345

2
Na -9.395  6.947 -3.813
Cl -8.198  7.799 -5.942

2
Na -8.428  7.956 -3.444
Cl -7.337  8.326 -5.044

2
Na -7.651  7.610 -4.083
Cl -6.203  7.689 -5.631

2
Na -7.250  8.701 -4.391
Cl -5.996  7.411 -6.233

2
Na -5.967  8.349 -4.721
Cl -6.404  7.247 -6.779

2
Na -7.323  8.372 -5.575
Cl -4.905  6.556 -6.369

2
Na -7.759  9.448 -6.353
Cl -6.371  7.823 -6.136

2
Na -8.067  7.869 -4.645
Cl -5.447  8.583 -6.389

2
Na -6.842  7.458 -4.586
Cl -6.864  9.180 -7.542

2
Na -6.011  6.918 -5.283
Cl -6.761  8.235 -7.668

2
Na -7.218  8.415 -5.172
Cl -7.319  9.115 -7.954

2
Na -6.142  9.982 -6.263
Cl -7.070  9.303 -7.808

2
Na -6.813  9.714 -6.676
Cl -8.383  9.815 -8.156

2
Na -6.405 -8.824 -6.746
Cl -7.932 -9.168 -7.752

2
Na -5.374 -9.335 -5.956
Cl -8.022 -9.372 -8.901

2
Na -6.341 -9.809 -6.907
Cl -8.049 -7.735 -8.844

2
Na -6.546  9.516 -5.980
Cl -8.550 11.935 -8.602

2
Na -8.264  9.207 -6.538
Cl -8.499 11.828 -8.922

2
Na -7.786  8.550 -7.865
Cl -7.912 10.743 -8.849

2
Na -6.961  8.737 -9.211
Cl -7.513 10.463 -7.120

2
Na -6.743  8.745  9.789
Cl -6.738  9.686 11.946

2
Na -5.658 -9.399  9.177
Cl -6.370 -9.841 11.747

2
Na -5.818 -9.406  9.960
Cl -5.825 -9.886 12.060

2
Na -7.615 -9.113 -9.838
Cl -6.477 -10.866 -8.835

2
Na -7.736 -9.613 -9.525
Cl -6.991 -11.673 -8.557

2
Na -8.785 -9.598 -9.150
Cl -7.139 -11.744 -10.347

2
Na -8.428  9.583 -9.977
Cl -6.934  8.775 -10.419

2
Na -8.476  8.594 -9.319
Cl -8.127  9.147 -10.337

2
Na -9.761  9.115 -9.888
Cl -7.707 10.015 -9.435

2
Na -7.963  9.099 -9.364
Cl -8.474  9.059 -7.407

2
Na -7.977  9.389 -8.549
Cl -8.347  9.292 -8.203

2
Na -8.831 -9.564  9.102
Cl -8.720 -12.629 11.415

2
Na -9.071 -9.124  8.864
Cl -10.855 -12.550 11.695

2
Na -8.776 -9.317  9.158
Cl -10.161 -12.291 11.838

2
Na -8.237  9.263  9.732
Cl -8.890  7.312 12.800

2
Na -8.484  8.874  9.221
Cl -8.658  7.842 12.192

2
Na -8.317  9.920  9.455
Cl -9.219  8.358 11.489

2
Na -8.059 -9.366 -9.794
Cl -9.589 -11.954 -8.192

2
Na -7.513  9.942 -9.802
Cl -8.575  8.123 -7.496

2
Na -7.246 -9.281 -9.014
Cl -9.101 -12.149 -7.737

2
Na -6.130  9.832 -7.095
Cl -9.390  7.370 -7.144

2
Na -5.967  9.109 -7.788
Cl -8.709  7.131 -7.783

2
Na -7.186  6.927 -6.272
Cl -8.262  6.447 -6.857

2
Na -6.895  7.194 -7.849
Cl -8.471  5.850 -7.220

2
Na -9.219  6.593 -5.869
Cl -8.672  8.824 -6.951

2
Na -9.110  6.082 -6.783
Cl -9.401  8.536 -7.855

2
Na -9.193  4.794 -6.457
Cl -8.006  9.341 -6.950

2
Na -8.569  5.920 -6.846
Cl -9.244  8.561 -5.923

2
Na -9.361  7.790 -7.188
Cl -9.941  8.314 -7.135

2
Na  9.167  7.657 -4.627
Cl  8.954  7.794 -6.576

2
Na  6.886  8.536 -6.098
Cl  8.287  8.076 -6.410

2
Na  7.621  8.446 -5.937
Cl  8.414  7.401 -5.440

2
Na  5.852  7.710 -6.733
Cl  7.484  8.201 -5.876

2
Na  6.230  8.297 -6.863
Cl  7.199  8.152 -6.182

2
Na  6.972  7.808 -7.352
Cl  7.775 10.070 -6.041

2
Na  7.593  7.242 -6.439
Cl  9.440  8.175 -4.267

2
Na  6.709  6.483 -6.454
Cl  9.295  8.190 -5.394

2
Na  7.976  7.218 -5.828
Cl 10.182  8.442 -3.006

2
Na  8.063  6.299 -4.876
Cl  9.994  7.914 -2.977

2
Na  9.025  7.191 -5.467
Cl 10.882  8.197 -3.132

2
Na -9.352  7.566 -4.897
Cl -10.077  7.234 -2.783

2
Na  9.816  8.231 -5.143
Cl 10.760  6.412 -3.838

2
Na -9.252  7.331 -4.632
Cl -9.306  4.742 -5.025

2
Na -8.222  6.558 -4.686
Cl -8.220  4.320 -4.811

2
Na -8.150  4.812 -4.771
Cl -8.031  6.490 -5.326

2
Na -8.815  3.144 -4.890
Cl -7.760  4.869 -7.101

2
Na -8.232  2.354 -5.282
Cl -7.846  4.690 -6.779

2
Na -8.143  1.553 -5.470
Cl -8.425  3.887 -8.117

2
Na -8.249  0.564 -6.466
Cl -7.384  2.292 -8.712

2
Na -8.254 -0.527 -6.374
Cl -6.873  2.768 -8.815

2
Na -7.828 -0.069 -6.979
Cl -5.870  3.847 -8.126

2
Na -6.065  0.396 -6.553
Cl -6.045  4.011 -7.245

2
Na -6.204  2.153 -6.899
Cl -5.290  4.555 -7.508

2
Na -6.040  3.206 -6.024
Cl -4.389  3.119 -7.115

2
Na -6.352  4.654 -5.807
Cl -5.901  3.807 -8.002

2
Na -7.244  4.468 -6.759
Cl -4.801  1.967 -7.065

2
Na -5.797  3.924 -6.300
Cl -3.047  3.011 -5.794

2
Na -4.432  4.890 -4.721
Cl -4.214  3.550 -7.030

2
Na -5.216  5.011 -4.898
Cl -3.842  2.285 -7.091

2
Na -6.670  4.493 -4.667
Cl -4.448  1.472 -7.445

2
Na -5.610  5.740 -5.325
Cl -3.964  2.065 -6.448

2
Na -5.513  4.367 -4.848
Cl -3.414  1.329 -6.548

2
Na -5.491  2.912 -5.452
Cl -4.132  2.819 -7.515

2
Na -6.202  3.194 -7.120
Cl -3.220  3.665 -7.143

2
Na -5.923  2.918 -7.005
Cl -2.306  2.445 -6.852

2
Na -4.956  2.083 -6.052
Cl -3.157  1.976 -7.397

2
Na -4.808  3.222 -5.776
Cl -3.524  1.305 -6.993

2
Na -5.491  4.160 -7.319
Cl -4.557  1.728 -8.335

2
Na -3.497  2.409 -7.827
Cl -4.798  1.834 -9.278

2
Na -3.092  2.471 -7.415
Cl -4.169  0.957 -9.934

2
Na -2.506  3.069 -8.033
Cl -4.439  1.659 -10.044

2
Na -2.026  2.842 -7.991
Cl -4.529  1.380 -9.402

2
Na -1.533  0.779 -8.237
Cl -3.205 -0.540 -7.983

2
Na -1.716  1.067 -6.573
Cl -2.182 -0.236 -7.127

2
Na -0.867  2.048 -5.247
Cl -2.869 -1.417 -5.303

2
Na -1.479  1.561 -4.515
Cl -3.370 -0.763 -6.054

2
Na -2.583 -0.377 -4.498
Cl -3.992 -1.934 -4.948

2
Na -2.104 -1.371 -4.238
Cl -3.678 -3.316 -3.965

2
Na -1.245 -2.517 -4.827
Cl -2.140 -4.341 -4.021

2
Na -1.042 -3.138 -6.444
Cl -2.198 -4.647 -3.388

2
Na  0.129 -3.341 -5.791
Cl -1.466 -5.305 -3.856

2
Na -1.828 -3.105 -5.720
Cl -1.965 -4.671 -2.955

2
Na -2.020 -4.211 -4.629
Cl -1.414 -4.009 -2.031

2
Na -1.582 -4.208 -5.497
Cl -0.903 -3.908 -4.047

2
Na -1.026 -3.650 -5.975
Cl -1.778 -4.668 -3.408

2
Na -2.069 -3.486 -6.547
Cl -0.020 -3.592 -3.855

2
Na -1.793 -4.044 -6.866
Cl -0.313 -4.467 -3.733

2
Na -2.186 -4.901 -5.917
Cl  0.037 -3.068 -3.417

2
Na -2.073 -5.570 -5.302
Cl  0.900 -3.032 -4.517

2
Na -2.058 -6.128 -4.156
Cl  0.713 -3.454 -5.283

2
Na -1.469 -6.296 -3.306
Cl  0.677 -3.016 -4.218

2
Na -2.357 -6.424 -3.243
Cl -1.692 -4.812 -4.196

2
Na -2.909 -6.223 -3.471
Cl -1.480 -6.385 -4.335

2
Na -4.773 -6.622 -3.122
Cl -1.959 -7.981 -3.513

2
Na -3.346 -7.582 -3.254
Cl -1.694 -5.496 -1.685

2
Na -3.479 -7.066 -2.551
Cl -0.163 -6.067 -1.639

2
Na -2.311 -7.295 -3.137
Cl -0.374 -7.123 -0.632

2
Na -0.046 -7.968 -2.920
Cl -0.045 -6.813 -0.378

2
Na -0.699 -9.216 -0.971
Cl -0.119 -7.100 -2.620

2
Na -0.801 -9.471 -0.554
Cl -3.454 -8.348 -2.437

2
Na -1.400 -9.696 -0.995
Cl -3.830 -8.319 -2.091

2
Na -2.084  9.932  0.057
Cl -3.638 13.230 -1.653

2
Na -2.652 -9.338  0.433
Cl -2.152 -6.499 -2.016

2
Na -2.392 -8.614  0.446
Cl -1.036 -7.860 -2.941

2
Na -3.430 -8.527  0.669
Cl -2.607 -7.620 -1.157

2
Na -5.438 -7.038  0.236
Cl -4.264 -7.081 -0.099

2
Na -5.620 -4.291  2.178
Cl -6.283 -6.944  0.196

2
Na -6.093 -3.353  2.541
Cl -6.474 -6.253 -0.427

2
Na -6.847 -4.227  2.406
Cl -6.996 -6.012 -0.625

2
Na -5.965 -3.177  0.882
Cl -5.485 -5.228 -1.173

2
Na -5.760 -3.189  0.407
Cl -6.669 -5.495 -2.447

2
Na -6.965 -3.742  0.194
Cl -7.230 -5.841 -1.562

2
Na -7.411 -3.480 -0.983
Cl -7.117 -5.063 -0.109

2
Na -9.161 -2.767 -0.124
Cl -6.364 -4.985  0.749

2
Na -8.443 -2.955 -0.020
Cl -7.432 -5.514 -0.622

2
Na -7.611 -2.041 -0.636
Cl -7.392 -5.599 -0.202

2
Na -8.035 -4.155  0.465
Cl -8.639 -6.608 -1.187

2
Na -6.896 -5.518 -0.740
Cl -8.555 -7.257 -2.385

2
Na -7.729 -5.913 -0.466
Cl -7.773 -7.102 -3.068

2
Na -6.379 -5.176  0.107
Cl -6.904 -8.251 -0.403

2
Na -6.904 -5.979 -0.568
Cl -5.731 -7.428 -1.278

2
Na -7.804 -6.155 -1.411
Cl -6.892 -6.342 -0.040

2
Na -7.965 -5.334 -2.570
Cl -7.478 -6.219 -1.231

2
Na -9.541 -5.490 -2.450
Cl -6.566 -4.831 -1.455

2
Na -8.027 -3.953 -3.081
Cl -7.583 -6.271 -2.228

2
Na -7.413 -4.254 -3.616
Cl -7.686 -5.334 -1.375

2
Na -7.774 -4.757 -2.887
Cl -8.603 -4.058 -0.995

2
Na -7.978 -4.925 -3.413
Cl -8.439 -4.198 -0.871

2
Na -7.737 -4.627 -3.731
Cl -7.456 -3.831 -1.339

2
Na -8.579 -5.502 -3.855
Cl -7.769 -2.779 -2.137

2
Na -8.808 -5.028 -3.834
Cl -7.943 -2.979 -2.306

2
Na -9.558 -4.856 -3.078
Cl -8.534 -2.955 -4.351

2
Na -7.559 -4.885 -2.131
Cl -9.289 -2.469 -2.748

2
Na -7.834 -3.539 -2.882
Cl -6.940 -1.771 -3.673

2
Na -7.224 -4.577 -2.765
Cl -6.509 -2.924 -3.885

2
Na -5.047 -4.161 -2.582
Cl -6.643 -3.715 -3.799

2
Na -5.340 -4.323 -2.528
Cl -6.603 -3.305 -3.892

2
Na -4.948 -3.444 -2.207
Cl -8.492 -2.675 -4.320

2
Na -6.856 -2.585 -1.194
Cl -6.838 -2.830 -3.143

2
Na -6.812 -3.026 -0.898
Cl -7.767 -1.823 -3.418

2
Na -5.812 -2.312 -0.434
Cl -6.943 -2.376 -2.894

2
Na -7.076 -2.415 -0.797
Cl -7.474 -2.057 -3.563

2
Na -7.009 -1.400 -1.734
Cl -7.552 -2.314 -2.269

2
Na -7.053 -1.404  0.140
Cl -8.020 -3.540 -2.089

2
Na -6.764 -1.608 -0.538
Cl -8.215 -2.593 -3.006

2
Na -7.413 -0.626 -1.077
Cl -6.606 -3.315 -2.358

2
Na -6.928  0.343 -1.518
Cl -6.044 -0.638 -1.553

2
Na -7.683  0.784 -0.572
Cl -5.798 -0.281 -0.179

2
Na -7.042  1.588 -1.111
Cl -6.217 -0.682 -0.540

2
Na -6.436  1.143 -1.941
Cl -5.445 -0.790 -0.018

2
Na -6.567 -1.295 -0.557
Cl -5.890 -1.519 -0.643

2
Na -7.202 -0.781 -0.330
Cl -6.857 -1.963 -2.103

2
Na -5.909  1.709 -1.085
Cl -6.333 -1.655 -2.326

2
Na -5.688  0.275 -0.566
Cl -4.727 -0.155 -3.836

2
Na -4.404 -0.255 -1.193
Cl -6.021  0.306 -3.939

2
Na -4.302  0.506 -1.473
Cl -6.535  0.743 -5.142

2
Na -4.725  2.444 -1.639
Cl -6.740 -0.057 -4.588

2
Na -5.675  2.232 -1.784
Cl -6.175  0.822 -4.698

2
Na -6.295  1.736 -2.868
Cl -6.431  1.295 -3.545

2
Na -5.603  0.837 -3.889
Cl -8.114  1.777 -3.860

2
Na -5.590  1.718 -4.871
Cl -7.761  3.377 -4.981

2
Na -4.449  2.328 -4.156
Cl -6.600  3.721 -6.365

2
Na -4.111  2.890 -4.656
Cl -6.178  2.475 -3.754

2
Na -5.004  2.097 -4.209
Cl -5.892  0.800 -3.471

2
Na -5.279  1.039 -4.085
Cl -5.929 -1.411 -2.904

2
Na -3.976  0.062 -4.485
Cl -6.474 -1.349 -3.450

2
Na -4.859  0.485 -4.139
Cl -4.524 -1.412 -3.655

2
Na -4.574 -0.430 -3.735
Cl -3.124 -2.109 -1.809

2
Na -4.197 -0.646 -3.486
Cl -2.155 -1.851 -2.192

2
Na -4.398 -0.026 -4.967
Cl -1.325 -0.713 -3.294

2
Na -2.967 -0.965 -4.566
Cl -1.402 -1.480 -4.336

2
Na -2.668 -0.237 -4.834
Cl -2.672 -2.205 -3.003

2
Na -1.428  0.232 -3.624
Cl -3.379 -2.574 -3.595

2
Na -0.432 -0.950 -4.987
Cl -3.613 -2.453 -4.601

2
Na -0.828 -1.329 -6.123
Cl -4.338 -2.122 -4.785

2
Na -1.802  0.235 -6.299
Cl -4.370 -1.276 -5.349

2
Na -1.898 -0.510 -5.395
Cl -4.524 -1.285 -6.449

2
Na -2.540 -0.347 -6.368
Cl -4.661 -0.482 -7.258

2
Na -2.895 -1.043 -6.873
Cl -4.574 -0.941 -6.813

2
Na -4.246  0.070 -6.714
Cl -5.356  0.177 -5.025

2
Na -5.761  0.813 -5.807
Cl -5.420 -0.093 -5.479

2
Na -6.276 -0.981 -6.038
Cl -5.542  0.827 -5.587

2
Na -5.933 -0.981 -6.299
Cl -5.189  1.089 -5.540

2
Na -5.723 -0.673 -7.362
Cl -4.530  1.463 -5.567

2
Na -6.292  0.083 -7.324
Cl -3.896  1.411 -5.325

2
Na -6.904 -0.175 -7.468
Cl -4.824  0.229 -5.963

2
Na -6.199  0.049 -7.875
Cl -4.408  0.781 -5.514

2
Na -5.609 -0.633 -7.142
Cl -4.902 -0.076 -5.958

2
Na -4.224 -1.984 -6.856
Cl -5.419  1.174 -7.593

2
Na -3.983 -0.508 -6.858
Cl -6.309  0.698 -7.378

2
Na -3.911 -1.395 -6.854
Cl -6.520  1.274 -6.688

2
Na -4.435 -0.419 -5.917
Cl -3.905  1.991 -7.265

2
Na -3.056 -0.559 -4.829
Cl -3.042  0.453 -7.234

2
Na -3.391 -0.615 -4.723
Cl -3.806  0.207 -7.964

2
Na -2.335  1.418 -4.666
Cl -4.107  1.869 -9.535

2
Na -1.793  0.486 -5.019
Cl -4.056  0.671 -8.879

2
Na -0.939  0.494 -5.335
Cl -2.535  0.729 -8.416

2
Na -1.179  1.153 -6.734
Cl -2.680 -0.359 -6.547

2
Na -0.635  1.666 -6.857
Cl -2.580 -0.634 -5.061

2
Na -1.087  1.537 -8.150
Cl -3.306 -0.832 -5.692

2
Na -0.724  1.901 -8.340
Cl -2.648 -1.397 -6.596

2
Na -2.066  1.305 -7.951
Cl -1.370 -0.963 -8.304

2
Na -1.202  0.948 -7.241
Cl -0.844  0.179 -7.608

2
Na -2.218  2.659 -6.927
Cl  0.286 -0.017 -5.808

2
Na -1.888  2.599 -7.509
Cl -0.167  0.420 -8.210

2
Na -0.562  3.300 -6.612
Cl  0.244  0.159 -7.962

2
Na  1.200  2.397 -8.366
Cl  0.815 -1.049 -7.744

2
Na  1.655  2.259 -8.127
Cl  2.046 -0.603 -7.777

2
Na  1.938  1.885 -7.757
Cl  1.171 -0.369 -6.359

2
Na  1.317  1.573 -6.282
Cl  1.991  0.642 -6.337

2
Na  1.888  1.290 -8.049
Cl  3.758  1.988 -7.755

2
Na  1.684 -0.634 -8.267
Cl  5.827  1.237 -7.772

2
Na  1.387 -0.622 -7.278
Cl  5.340  0.537 -9.221

2
Na  1.021 -1.858 -7.803
Cl  4.893  0.129 -8.032

2
Na  2.544 -1.816 -6.633
Cl  5.387  0.083 -7.200

2
Na  1.965 -0.243 -6.710
Cl  5.251 -0.503 -5.583

2
Na  2.624  0.119 -6.269
Cl  3.754 -0.558 -4.614

2
Na  1.720  1.013 -5.994
Cl  5.217 -0.730 -4.997

2
Na  3.120 -0.107 -5.248
Cl  5.750  0.635 -4.023

2
Na  4.898 -1.153 -6.297
Cl  5.657  0.049 -4.987

2
Na  5.872  1.284 -6.481
Cl  6.258 -1.663 -5.285

2
Na  5.648  2.110 -5.292
Cl  5.885  0.450 -4.219
